 C  N  H Fe 
 1.0000000000000000
    34.0475116289535578    0.0000000000000000    0.0000000000000000
     0.0000000000000000   39.1338942689844274    0.0000000000000000
     0.0000000000000000    0.0000000000000000   30.0000000000000000
 C   N   H   Fe 
 604  20  52   1
Cartesian
  9.7481159285844861 16.6670309563117129  9.8448837593240768
 11.1081869705337848 16.3115206319205512  9.9153173255876936
 12.0441062126944249 17.3380186901958702 10.0556629122703356
 11.5687454317671783 18.6752659390516165 10.0997194273645619
  9.3864135644807671 18.0478885507538926  9.9234222470231241
 12.7627449491308500 19.5443899685272946 10.1742890751575032
 13.5188069292629987 17.4100510090284004 10.0990074991321404
 13.7776976982990682 21.6695640006218930 10.2595705178950407
 15.8879068615841668 22.4912987005750118 10.4314986565254486
 13.6507221860808539 23.1200007186026113 10.3098981637913312
 14.9526544474975296 23.6560915718811771 10.4646906582600963
 14.1223017536967834 25.7800545647657557 10.6505408266791335
 12.7823680569024276 25.3301205122554300 10.4162305460784665
 12.5412411266862929 23.9632331303068362 10.2642755820681923
 15.6580725944921770 16.4285608360639444  9.9964154428710845
 17.7729374474433328 17.2485682012883643  9.9518573332266413
 17.3272042626316747 13.1288358856301599  9.4889718454528804
 18.6975116682729485 13.5703620884930629  9.4913164443659799
 18.9697828798738151 14.9361713660737969  9.6482183668370425
 17.8875363721322209 15.7945142923495503  9.8251019260661092
 16.5748950238089741 15.2662831981061125  9.8442856807458412
 18.7692864876716712 19.3830350921560743 10.0752384886229844
 18.0340354510550576 21.5075449629632942 10.3898157631809323
 19.9649457673208772 20.2298887511339416 10.1954158407075113
 22.1500479827847165 20.7513022940789966 10.4787498537901058
 21.8272245728410041 22.0735412553663366 10.9145121933551792
 20.4813999580310409 22.5003125586284867 10.8555484462683456
 19.5180550702950910 21.5563554962917330 10.4589704468541083
 13.1490483992109333 27.8354140347365053 11.4921825468332646
 11.9047965590700660 27.4318565746364982 11.1892271307889501
 10.5579411619327654 25.9391942720387583  9.7222131163642445
 15.3215091716676177 28.0750544032320839 10.7382228937419217
  8.7728530075127527 29.1664612862055819  8.7965132388158906
  9.8034941188060003 28.2851893756399804  9.1420015750536265
  9.5209989862391531 26.9566887427256923  9.5727510820602664
  8.1551947530203677 26.5613493090724511  9.6386359088057105
  7.1290778899192206 27.4649045911344345  9.3436619181595404
  7.4308075786131056 28.7686723262771267  8.9094391046422317
 18.1629329265722959 29.0289692006653830  8.5690849976646906
 19.0569654256105245 27.9520844382741203  8.6702537202314272
 18.7347390101889211 26.8466652121546012  9.4728757168599032
 17.5070014156890110 26.7794962857559717 10.1391600719821167
 16.5783073708502258 27.8590679225381344 10.0492092561341195
 16.9660858792635167 29.0043254683231382  9.2850388334092315
 24.3021984287121562 20.8943666260724612 11.5425041280394680
 23.9324008750084190 22.0448247606598109 12.1301743250832335
 22.9671167579280748 24.1482390709619210 11.9102861830923246
 23.9838127704151312 19.5011717620020129  9.5121228261388762
 22.5674672022306062 26.2064247835938495  8.8413024018586146
 22.5976338297582124 25.0646526882945224  9.6479927708188011
 22.4037033419343068 25.1695752567139692 11.0575468485365764
 22.0515228375567567 26.4442399004790865 11.5911962977317984
 21.9420188804583027 27.5599752833266720 10.7625584739380287
 22.2501648991170526 27.4565704981401524  9.3912853649494838
 27.7339826460103396 19.9167635745794875  9.0442038116164252
 28.1508174593993168 18.5765204251275335  8.9989434812733293
 27.2020177060306274 17.5532262458992925  9.1751011874500676
 25.8509363312943243 17.8613145949309420  9.3674943960003549
 25.4159451310497708 19.2124993621932596  9.4599611824842356
 26.3932615388751195 20.2361063263445509  9.2950271390414212
 18.1445468132606216 10.9557733503988697  8.7915075371022784
 19.4183117073251204 11.3739680139455821  8.8137873247326564
 21.0735219952641408 13.0905910839561912  9.4652461126722187
 15.8931502623448093 10.9434046294251921  9.2696104582832817
 24.3878573760632840 11.6907633518227030  8.3475316195767153
 23.3007659599132531 12.5483179577494983  8.5488533505981206
 22.1630323577338508 12.1309598127550053  9.2943078780893966
 22.2205056957273897 10.8521886606686504  9.9209068955755715
 23.3393227548385163 10.0239490314745012  9.7670681030500344
 24.4159815478593956 10.4235650695515911  8.9560788846813484
 12.4025850366754913  9.8995836969609918  9.8807941107263275
 11.6699248151271320 11.0941205276374379  9.9647685041159679
 12.3345172129409413 12.3269899862528032  9.8501777974868077
 13.7210813518297297 12.3914210366904740  9.6732333698099637
 14.4963367267744410 11.1943954224519384  9.5768809728872366
 13.7822656354408650  9.9528504320234568  9.6708692898569364
  7.1227272152961589 17.4250428525624059  9.3044859649194933
  7.4639925054236800 16.1316436068395639  9.2369841238804895
  9.0552085476750754 14.3405809626536680  9.8274672969728272
  7.5898042043733271 19.6730465004917647 10.2040828422638423
  5.7911137658543641 12.4671921303143538 10.4487183879556493
  6.7650300170677475 13.4717833337893893 10.5042799257056156
  7.9614377373337328 13.3740755507831697  9.7372122349968038
  8.1403937842837468 12.2135815739398872  8.9392830546519502
  7.1360609576650145 11.2447738214771285  8.8390946126395402
  5.9577732917138748 11.3609614678163950  9.5971955257184032
  3.7904874235017663 19.6858626176596765 10.6645228611989769
  3.4575343335747797 20.8583731478750209  9.9643721871557034
  4.4799265558986123 21.6159536671472843  9.3644763295401390
  5.8154794219834569 21.2169596013572246  9.4738864789114530
  6.1682021687363866 19.9960049809973341 10.1147978312692288
  5.1195264634346556 19.2451423934436257 10.7229625428251314
 33.5398974092340154  0.6718886663995568  4.7822618929695455
  0.2031562791150159  1.9007429599700683  4.6418760966234629
 33.5470972044126654  3.1351101168345430  4.5212703071891278
  0.2176822029924562  4.3552868260481743  4.3319209653751054
 33.5690673221441500  5.5825618551398613  4.1285568007616282
  0.2522783198465282  6.8051911313064739  3.9883788317519011
 33.6008025024331829  8.0386681832752824  3.8266588593847235
  0.2884081984877638  9.2690894876621837  3.8219988067640278
 33.6234511269327641 10.5065876191043017  3.8087192116736910
  0.3053755082282698 11.7294248366751628  3.9648215537718574
 33.6295796562647453 12.9478882067801653  4.1269073605383957
  0.3019234575130721 14.1522561393970161  4.3904488467506315
 33.6252876125950877 15.3491183902906432  4.6439819601759060
  0.2874425065325520 16.5540245145274589  4.8965981932803961
 33.6133821647200790 17.7601193554199526  5.0741083718478572
  0.2669539494925915 18.9843846466166752  5.1892708829350918
 33.5950764764849197 20.2022589309857707  5.1459297985381616
  0.2501947579220285 21.4275973106050444  5.0953783006058728
 33.5830922084079688 22.6291117449305297  4.8522648734061153
  0.2459467223075112 23.8484617680173763  4.7401263115229852
 33.5783782522087435 25.0432906305913257  4.4365700392831533
  0.2418641204633959 26.2700212417082000  4.3672498278863969
 33.5679786361968269 27.4811643086703370  4.1326039730766686
  0.2250062596628781 28.7167777829523381  4.1488569192014069
 33.5474598509767716 29.9456303787619476  4.0653096810059699
  0.1998303352926425 31.1810524716958994  4.1609946148881241
 33.5293158996534046 32.4120207219874104  4.2454047791635920
  0.1859776343162899 33.6427634511623950  4.3690745437653780
 33.5269722333937139 34.8689646017003767  4.5508835911615346
  0.1911077725506609 36.1003662070841145  4.6248990799382037
 33.5347261498672182 37.3321828274577214  4.7825194826880599
  0.1995008295212853 38.5663765900237436  4.7498963563042924
  1.6244340004904472  1.8898976880630134  4.5568121470803664
  2.3404291221100002  3.1152616708894749  4.4641357201745553
  1.6424237223727329  4.3491034187449014  4.3577910080052362
  2.3700187878852983  5.5720779964403322  4.2821072197281032
  1.6797989771422530  6.8037035247932662  4.1053957621614510
  2.4158497496904250  8.0287800176932276  4.1120522177840968
  1.7207877461887802  9.2653692784411561  3.9762481351647239
  2.4520450725286702 10.4898172805550924  4.1110532510236917
  1.7411138013171092 11.7247978314675620  4.1029664347205852
  2.4583282926319758 12.9372864271301271  4.3643549867797287
  1.7343275936570850 14.1548935106603810  4.4901442679209680
  2.4371445985189211 15.3560091648090804  4.8151983906472413
  1.7110662654783795 16.5633069233468966  4.9779453645250262
  2.4038695319377266 17.7746298674999572  5.2572012601903140
  1.6821448269948742 18.9926155738889619  5.3054639014875002
  2.3731988134453981 20.2220251716157655  5.4490143215433298
  1.6596208675010722 21.4390400760546953  5.2917845753661661
  2.3565815403404686 22.6698634411538862  5.3176845010538187
  1.6515825058044176 23.8688629867526387  5.0098559707155479
  2.3539448894702959 25.0973275839807570  4.9977590251120318
  1.6495311235443948 26.2899566820723258  4.6519323830152350
  2.3520367146168852 27.5201328111605719  4.6501368832514336
  1.6403362097286402 28.7256881812285414  4.3728494150481358
  2.3409361964333937 29.9579310208578811  4.3940921863023874
  1.6222286060639486 31.1806689152346408  4.2600292768813830
  2.3236868257111811 32.4127165353408415  4.2938377541908324
  1.6080786494211872 33.6424296537259195  4.3223901183928586
  2.3157991668929911 34.8723141769017388  4.3434729539990249
  1.6084088948186208 36.1004085563486043  4.4772531919668506
  2.3206440009645664 37.3292350334783052  4.4594689778277541
  1.6164546132832587 38.5599599433227027  4.5912131525426485
  2.3289518594771033  0.6542002486502594  4.5287384887443238
  3.7466037592206831  0.6457455530212732  4.3960751144796717
  4.4640061586082327  1.8701985914063697  4.4187219184463098
  3.7627674228472379  3.1037643129630692  4.4658955065037977
  4.4829484209808212  4.3265757791875430  4.5150536268772621
  3.7891489377095704  5.5627312130375515  4.4317161724082164
  4.5156696711415298  6.7835312616562948  4.5144250941318393
  3.8303239551196477  8.0200687697627977  4.3585769845364553
  4.5571918112037917  9.2396025126780135  4.5085962498111325
  3.8671635359952323 10.4786468744283283  4.3851087586647717
  4.5819860306080695 11.6938059473744289  4.6340145743282344
  3.8750753612073119 12.9281852986169028  4.6181862197909851
  4.5716349073793658 14.1336269657460729  4.9567805107708560
  3.8517390573925239 15.3556901316720928  5.0345989644253564
  4.5358843688205344 16.5612093313394766  5.3888090726893978
  3.8133671671859206 17.7811802711815901  5.4643997319249840
  4.4938662753054226 19.0036078030718691  5.7410571478563810
  3.7759875232690909 20.2302649030360762  5.6931654355540227
  4.4621322010274707 21.4660119673955023  5.8400541321068999
  3.7513175260926284 22.6847433621953769  5.6321168646410760
  4.4443200321805802 23.9213880347837033  5.6890516077947249
  3.7431975277270269 25.1221623639244953  5.3569467207662314
  4.4464076190158970 26.3528116571751383  5.3463664220868177
  3.7480835106845714 27.5435159624727923  4.9782596788239903
  4.4558477919596804 28.7700206869256334  4.9271168315249971
  3.7517841817988238 29.9691863379621282  4.6139093556119102
  4.4585387482693264 31.1941735319736040  4.5359059409240396
  3.7456656925873304 32.4112257190700177  4.3480255054424788
  4.4504155615414582 33.6373044340706997  4.2617568585524879
  3.7354753475083791 34.8671392716743185  4.2381696718607733
  4.4431544880881786 36.0946020621214103  4.1738709825775526
  3.7349931601023001 37.3245270851908373  4.2806264315721183
  4.4492255409197190 38.5509214438542998  4.2616897273703822
  5.8854431720638862  1.8602509276567496  4.3956639981766443
  6.6006567650320394  3.0746363366835463  4.5739166955762300
  5.8994743889733359  4.3075374267365811  4.6511587986502443
  6.6120820256562105  5.5209485745911442  4.8491395718214392
  5.9190740726885691  6.7616353838564924  4.7897364025299538
  6.6347186619327516  7.9756035756580310  4.9919737538596829
  5.9518326174491962  9.2179775780788518  4.8561441840806188
  6.6648384823212945 10.4318168689004551  5.0926581236912218
  5.9762326901134815 11.6739661111609792  4.9894275183532946
  6.6743158793379287 12.8842832960523239  5.2985902956809365
  5.9687911984842801 14.1199504898552366  5.2838877443097934
  6.6527739230204324 15.3290702458346590  5.6353209351819089
  5.9378131822549198 16.5594231235317153  5.6691476545675803
  6.6184984153905928 17.7795794698366834  5.9835915752825732
  5.8977467101908987 19.0093153395031571  6.0001779842755107
  6.5797831264578743 20.2440811704388963  6.2298007771821782
  5.8624647007299391 21.4755010569692217  6.1274942203969109
  6.5526063362090481 22.7174441288340390  6.2461674163514402
  5.8416469490183758 23.9393767088768570  6.0139268347549564
  6.5473254531106253 25.1763827704044800  6.0054732918490563
  5.8459174438351162 26.3777219879287514  5.6634246849129237
  6.5620012197990398 27.6004522231724465  5.5515963283939138
  5.8629915870841991 28.7910868404456934  5.1803841331395271
  6.5781326191725640 30.0057776885066083  5.0088752424900935
  5.8756498232566381 31.2011844058176244  4.6724848417926506
  6.5839492844325669 32.4141525960773507  4.4712166462114320
  5.8724128760706122 33.6294594773535067  4.2505873583422025
  6.5762095165821979 34.8518465715437031  4.0923020696730124
  5.8625375483551778 36.0852947479963149  4.0544816648360875
  6.5731457348386053 37.3148651774055082  4.0141173609325174
  5.8679462353405851 38.5459522843594158  4.1361595334599590
  6.5859935161915208  0.6348384181100082  4.2305530403857023
  8.0078522176125393  0.6293152963579901  4.2057578755930800
  8.7217156024695637  1.8379100943354947  4.4447171225239410
  8.0194662114355886  3.0564137225788643  4.6621799821324563
  8.7265225823668828  4.2572021358800001  4.9556559806344316
  8.0209993750289357  5.4897154520373297  5.0714472779937836
  8.7274319459719436  6.6972850245435485  5.3418993580401510
  8.0296130385612035  7.9419178428248403  5.3194252679580964
  8.7396342218115066  9.1553978579771034  5.5620455054803832
  8.0522706452125306 10.4025992165263030  5.4619203667789407
  8.7572726775275065 11.6181106238256433  5.7218136832702982
  8.0620403782970023 12.8618385369882589  5.6611195771031220
  8.7526883663188109 14.0767957068784675  5.9732306942095885
  8.0485074940012460 15.3172769946566056  5.9562884156560623
  8.7375120954160987 16.5411721732424652  6.2442629126675104
  8.0241849553294635 17.7791194628619849  6.2486495567171128
  8.7097683242480795 19.0115748185298052  6.5021254435507112
  7.9887676803011063 20.2489349177364488  6.4821779517189544
  8.6832954797160973 21.4922042207273485  6.6319829553957268
  7.9658629484039398 22.7280716870628474  6.4988820396971638
  8.6735894514233447 23.9715232538111067  6.5021063693917114
  7.9634634115893776 25.1919508107744328  6.2403100888068508
  8.6815559037350294 26.4181433428796453  6.1026180581630038
  7.9795326678774137 27.6164557656300076  5.7493129803653193
  8.6980502007883107 28.8260674527098431  5.5216128750010531
  7.9972339940743664 30.0163192061451731  5.1485544009065611
  8.7090499854399877 31.2184690554891553  4.8737213223969897
  8.0047465289209807 32.4129442741388729  4.5276563656276654
  8.7095544138766297 33.6204041246878873  4.2662131085712929
  7.9984071530883920 34.8413416518207057  4.0590193547262752
  8.7042193367678262 36.0700375441358077  3.9325606991147311
  7.9953185215934974 37.3080687599950735  3.9434301490095454
  8.7089740600979813 38.5375054365384457  4.0203415839532415
 10.1424945929428194  1.8290526169339274  4.4703692592081987
 10.8523071246403031  3.0262229553073281  4.7831645216768939
 10.1467695525856776  4.2356067398878592  5.0624323865187657
 10.8544422008986903  5.4370440848064048  5.3712311048957435
 10.1431549532446574  6.6662918443512984  5.5425140996036486
 10.8528012257112003  7.8806143407431817  5.7981793312286820
 10.1451947804461007  9.1239545485732094  5.8431041947245177
 10.8566451331957055 10.3455654949842462  6.0619551472717585
 10.1545715156499465 11.5918368036617938  6.0415381600225260
 10.8589508935235983 12.8161135662436898  6.2795086518037380
 10.1522734553463181 14.0596673971704345  6.2771085555444035
 10.8538745184034102 15.2895913640805166  6.5058099172931341
 10.1453615991412942 16.5334239640297511  6.4997174141396403
 10.8456154239718394 17.7710538617184994  6.6950131572367173
 10.1289519268553700 19.0125521724084621  6.7016990479616103
 10.8304013577668687 20.2557739689332656  6.8405994384266222
 10.1092964516879924 21.4970950220161328  6.7990250953966589
 10.8183897389203967 22.7435687141710510  6.8168041717878207
 10.1019942912087153 23.9783224027855262  6.6510569632264076
 10.8181077351733492 25.2130478613359692  6.5280290111844153
 10.1086403995018941 26.4269866998987091  6.2367126920150877
 10.8258173596997445 27.6421932580168423  5.9993352834716518
 10.1213165897002568 28.8364600503086805  5.6326112150014049
 10.8338737661668212 30.0358270251523720  5.3238074746550277
 10.1307514488539301 31.2221078987731708  4.9375354196089924
 10.8373496493812844 32.4143946919287416  4.5984867240718321
 10.1308469720466210 33.6148379141913551  4.2777414389049540
 10.8352027718492909 34.8300195819730760  4.0365811225658641
 10.1261475367819020 36.0625887115391635  3.9074819468040536
 10.8348814932867885 37.2983498205261554  3.8814145360458960
 10.1305177243212512 38.5332452727496744  3.9973199222767173
 10.8427487532825761  0.6181433882211462  4.1948300651390014
 12.2631088749849049  0.6176481373997454  4.1582724733664369
 12.9732307716441806  1.8297204293720275  4.4050911152695713
 12.2749297112231233  3.0254730663985567  4.7606998007839954
 12.9862182352202886  4.2295657134446474  5.0514695939495606
 12.2822541211508884  5.4301790623962480  5.3897803869638485
 12.9946286104012252  6.6468483226056163  5.6355935777822461
 12.2829284713834177  7.8681341142275123  5.8762944090710070
 12.9962655518443544  9.0975295564874816  6.0548411250533007
 12.2823049426461957 10.3322692762115338  6.1955903356278004
 12.9941773209557425 11.5666978373192979  6.3400382748432094
 12.2814057680073478 12.8054325635311290  6.4382751655067247
 12.9916942951401175 14.0418784260772451  6.5869435362054656
 12.2783206745554843 15.2837752343907916  6.6571440027486508
 12.9887391272552257 16.5249683212793919  6.7761048388817366
 12.2734688751863228 17.7688130249728182  6.8186779475941259
 12.9823938640683281 19.0128196480675840  6.9169064179623510
 12.2626770718760980 20.2563791385004208  6.9309826987326781
 12.9748306942331233 21.5027593869227047  6.9612227693564668
 12.2546446594861429 22.7449103960956265  6.8916926631243296
 12.9697668268763096 23.9861763130014509  6.7973422395093746
 12.2521623027395279 25.2167541964905233  6.5986174855608244
 12.9676643998268641 26.4391060003037879  6.3712857468011910
 12.2550731812124098 27.6486653370059265  6.0626226590607510
 12.9665950389042450 28.8469582300646437  5.7250880264587769
 12.2591472525494272 30.0378840122442767  5.3545765957741773
 12.9644911004328041 31.2205288470570643  4.9635397330307276
 12.2591332534726245 32.4108950633552482  4.5997697986826580
 12.9630157324071060 33.6069172147499060  4.2589498330453077
 12.2564564107548257 34.8249454340126405  4.0190401523471309
 12.9627337691902440 36.0545619979454557  3.8559920234567366
 12.2559686930729370 37.2948292320370811  3.8501156907204868
 12.9647145606383507 38.5301699463893854  3.9249732845644285
 14.3906220784608490  1.8410463152834451  4.2972325436377199
 15.0983057908563367  3.0594070310858457  4.5227738260051353
 14.4051275235003864  4.2480484815196231  4.9205716322681790
 15.1155099804169257  5.4690817457458927  5.1349446996687931
 14.4190383513702827  6.6643047258532153  5.5117230235043726
 15.1288316376439056  7.8982634922241726  5.6611059708780687
 14.4244626728037684  9.1103352698980018  5.9606047079155653
 15.1319697897731427 10.3520147013168611  6.0492102212360521
 14.4229929677302628 11.5751337443291291  6.2808429717694017
 15.1319670824512347 12.8165650299138072  6.3670900366050631
 14.4226733622861474 14.0462503103104162  6.5667014815794991
 15.1334154641113141 15.2883381730507892  6.6488930697982349
 14.4209157522046354 16.5261245095313676  6.7849419709276049
 15.1340165026747187 17.7686034453693260  6.8640474348208622
 14.4176695413481344 19.0109226803666864  6.9460547031631137
 15.1324734232140194 20.2555508178478867  6.9874959137608528
 14.4122276875676949 21.5011560345462485  6.9854219489936762
 15.1277965308483537 22.7436450981434497  6.9202051307865267
 14.4071055878608245 23.9835657701419329  6.8019265170020313
 15.1201729387472845 25.2097077023574982  6.5779129248316801
 14.4014334983973278 26.4324908109501280  6.3456450281188381
 15.1071242315990659 27.6293879968925467  5.9858762226230073
 14.3933309367093720 28.8351525127956698  5.6784631406691242
 15.0934162737112771 30.0139437786832879  5.2587540268562787
 14.3862711985021647 31.2103130082040998  4.9164077928515582
 15.0875943682454068 32.3941919255637529  4.5173839627140930
 14.3838975928750532 33.6020387561974374  4.2211369614050636
 15.0897351554772836 34.8172575042612493  3.9487025312069344
 14.3841064239740035 36.0524333310866467  3.8160594376770272
 15.0908196607188465 37.2934998634700676  3.7506175999784128
 14.3844675200040850 38.5318098841560541  3.8568578281465440
 15.0900499454780395  0.6320680051771097  3.9866882664961167
 16.5093060027867153  0.6399253149220030  3.8887325612893857
 17.2112435966092150  1.8748490535303926  4.0324422503739026
 16.5101764317277713  3.0829076736179863  4.3469145235840774
 17.2144442446271881  4.3118634510700886  4.5172868353930804
 16.5227433469968474  5.5044308518101639  4.9034826596616901
 17.2286367787583004  6.7387840259653187  5.0349224565237449
 16.5371681031258930  7.9341685936541255  5.4131385786796233
 17.2405785630876132  9.1769371038848124  5.4850544163554096
 16.5431805173008684 10.3833411685269450  5.8140256292472960
 17.2474901186683525 11.6263706059153034  5.8663772527554423
 16.5505044300099691 12.8373960141673571  6.1826040009345453
 17.2640671079294457 14.0740710474883457  6.2792231238839253
 16.5611269082073171 15.2972425994518257  6.5373164955830276
 17.2780565778106379 16.5337651660514915  6.6331987441607518
 16.5679527609538013 17.7686827878226659  6.8115716657881347
 17.2865948198431489 19.0076649677069263  6.8752022612278560
 16.5700296151203545 20.2516911516642004  6.9587925554349539
 17.2867716510018106 21.4943275926777169  6.9168917508159211
 16.5657860856568462 22.7372771920904917  6.8698576901025632
 17.2751283069500090 23.9656441801576570  6.6544382443036199
 16.5515138884489801 25.1936657679485947  6.4757365143352530
 17.2484099760733542 26.3883594668001571  6.0985619139985650
 16.5289351902970587 27.6014913926786534  5.8476054877287718
 17.2217385017006954 28.7797422566287402  5.4174764074889490
 16.5122173165004718 29.9899936670533798  5.1417426956201249
 17.2103465105967679 31.1759106531157109  4.7420971614725733
 16.5075643094887319 32.3856206713463592  4.4522264043502711
 17.2136238715634882 33.5930444023158117  4.1401994161729050
 16.5121080925538593 34.8180982389671527  3.9200692427285579
 17.2215073504145053 36.0536799540679311  3.7671236504770889
 16.5140088301856736 37.2954236806214041  3.7126801070510131
 17.2191073037795555 38.5401458726293527  3.7366384916079212
 18.6322071710842501  1.8845795750037992  3.9496348374174062
 19.3326883448531994  3.1207468378505738  4.0748069045906012
 18.6248915794352712  4.3380007898558768  4.3221512110411435
 19.3274848774473647  5.5731967873632904  4.4334707809720442
 18.6292757904558002  6.7774672708280637  4.7604200750926413
 19.3343065186659970  8.0151112985328066  4.8397297634088687
 18.6402070075396082  9.2162293212700561  5.1907531026927964
 19.3476437048705101 10.4545716699699938  5.2587724889197318
 18.6543250755763346 11.6571724083317765  5.6070481030746331
 19.3732696578534558 12.8843449106383492  5.7338816725972919
 18.6830806871267932 14.0893007930941181  6.0884021247699840
 19.4060549184752098 15.3123499211614078  6.2410274841103321
 18.7069880695231383 16.5346344851232381  6.5194011932817393
 19.4293659100365801 17.7642750170292665  6.6290794159154132
 18.7202767167271524 19.0022379750182644  6.7920073325841903
 19.4395892764597278 20.2412203303416725  6.7901184993224462
 18.7217166689394681 21.4859513585090944  6.8199843713080801
 19.4303279037484131 22.7181154902352453  6.6326233495811939
 18.7039566476694716 23.9492754940151933  6.5079991364839174
 19.3951391538334903 25.1478043764236894  6.1343152955736002
 18.6659022583773435 26.3578091333470717  5.9082966433765440
 19.3531917811305334 27.5385821202980416  5.4823448798325813
 18.6367288693884099 28.7516097834324427  5.2526924173778164
 19.3345490149865604 29.9471165953066887  4.8931406226945029
 18.6290642810469720 31.1644542259393695  4.6573921566954359
 19.3352094455370143 32.3764081964549888  4.3758864131253716
 18.6356792987918887 33.5972401488872237  4.1409822663552394
 19.3478019865218727 34.8289265447961895  3.9825409084657801
 18.6457784417154357 36.0609204839841340  3.8122538236788035
 19.3553843000572776 37.3041322743182988  3.7917184337390335
 18.6442571259511851 38.5437131503110848  3.7502121882513961
 19.3470872884638823  0.6514452065799562  3.8348436879231693
 20.7697616182108540  0.6544077381097513  3.9300816396546177
 21.4717639554956854  1.8925235993818301  4.0193719313980827
 20.7561762631048445  3.1272061618337310  4.0422698132962855
 21.4574803708488560  4.3642315628740009  4.1183983639601252
 20.7429831948897103  5.5916690970498255  4.2652834466756673
 21.4468319560488716  6.8281283774374284  4.3262997088170598
 20.7408446544514682  8.0435289366870819  4.5852998161290506
 21.4515027993781118  9.2767302472399820  4.6602874581427773
 20.7556358125616995 10.4807329942183323  4.9992275720008204
 21.4761773324027345 11.7042977021150705  5.1275513918534426
 20.7882038982292698 12.9001905045429908  5.5152889100446592
 21.5161589759322709 14.1119357920071113  5.7010660941306659
 20.8291204846506766 15.3133295442291377  6.0797020130274868
 21.5568120510343419 16.5301358248100740  6.2486652048015392
 20.8587684631931225 17.7572653039544157  6.5091292521653790
 21.5803598716709359 18.9903351198746080  6.5482782521623770
 20.8704490968883434 20.2323491772318498  6.6573569084057045
 21.5791970797544934 21.4677654834250120  6.5116534765810021
 20.8560120065854520 22.7038004107928479  6.4527056250697985
 21.5452570420250282 23.9102081262264399  6.1032547970720703
 20.8118053869003035 25.1226968451977335  5.9188691579142034
 21.4938558087907339 26.3052253723767819  5.4912896913958047
 20.7689280259885614 27.5173345953352140  5.2999358706072988
 21.4651583299880926 28.7163458825446973  4.9565338864573496
 20.7535964101034054 29.9378285007486902  4.7894922520984560
 21.4594732355723181 31.1561157726593692  4.5584579378919452
 20.7562684553594323 32.3815386263748692  4.3882945749396631
 21.4666878519386444 33.6144250916062290  4.2792631430803141
 20.7667950950870726 34.8421894812050468  4.1021049211036589
 21.4765090868622153 36.0819095282441182  4.1020885852547186
 20.7739048421284238 37.3130905074472139  3.9465936576658587
 21.4794522930941341 38.5531258078458734  4.0159585827443305
 22.8896653193018018  1.8957063672178351  4.1653743409741377
 23.5951631366110277  3.1328070705107689  4.1901079910265775
 22.8820409800958728  4.3663614943365596  4.1205124135412756
 23.5858722360814994  5.6033251984883146  4.1188628997263521
 22.8680285931237961  6.8358797681988177  4.1888229540153779
 23.5758216860872452  8.0708364318681181  4.2139962177455459
 22.8664907477785739  9.2916929123756731  4.4429140510010248
 23.5845785992906478 10.5173588882095821  4.5423445508589566
 22.8898587807986083 11.7189763409703964  4.8967532639010596
 23.6182607306407704 12.9277858985049630  5.0821245875960130
 22.9335237044529556 14.1171096543499157  5.4980505450137667
 23.6675451603099098 15.3169335356085519  5.7226927924391191
 22.9798171130879005 16.5243482341149210  6.0827593596356877
 23.7039083029661946 17.7483849275521308  6.1845530847136141
 23.0028377577045404 18.9825222358010564  6.3777143061474808
 23.7130855159444636 20.2176988131074857  6.2794270935941636
 22.9990991778538856 21.4565841900542900  6.2989754502700617
 23.6886383746586233 22.6722496120583124  5.9899210919951429
 22.9582701842395167 23.8908765494140738  5.8573187357661265
 23.6361846545026069 25.0757817892251325  5.4274480743998037
 22.9053911775621515 26.2854360329352481  5.2569104598695313
 23.5969780745061897 27.4826566577328215  4.8973937492134203
 22.8815592771598837 28.7066217777716908  4.7957275616565207
 23.5873509604217197 29.9268071783117620  4.5818745843129003
 22.8805030342777336 31.1582519923496903  4.5231151750983392
 23.5900341843945291 32.3917973401018244  4.4630335151767735
 22.8842683466443972 33.6244263621263713  4.3926544091022626
 23.5905448283262302 34.8615065499071406  4.4409240841353901
 22.8859914252605350 36.0932446898895734  4.3199484125168643
 23.5906202675368633 37.3307805560340356  4.4068577443807291
 22.8884261278934140 38.5611179976176643  4.2459800582743412
 23.5942976915520930  0.6647595112514563  4.3147195046729792
 25.0053828034369587  0.6730193066067691  4.5327407788865068
 25.7176530347159726  1.9097455220647321  4.5135872415515612
 25.0151020622431588  3.1367823554153200  4.3144367848199039