 C  N  H Fe  S 
 1.0000000000000000
    33.8400625241366910    0.0000000000000000    0.0000000000000000
     0.0000000000000000   39.0436978159798755    0.0000000000000000
     0.0000000000000000    0.0000000000000000   30.0000000000000000
 C   N   H   Fe  S  
 572  12  72   1   4
Cartesian
  0.0043134851536393  0.0156074759740988  5.1976961971910640
  0.7080629631922025  1.2408275584408901  5.1163692558478138
  0.0052341611800992  2.4659242261840553  5.0215255429983330
  0.7097070566322692  3.6857254819165060  4.8820305921993423
  0.0078594281162569  4.9060139108350977  4.7384210602626808
  0.7156002087938900  6.1254353459379871  4.6027679887924915
  0.0127166665453423  7.3472383180725034  4.4799644220354660
  0.7249716323948081  8.5709263783250123  4.4172099766696258
  0.0171206534068973  9.7962062004419455  4.3866608018983291
  0.7303357758024239 11.0194218361036391  4.4440061441791556
  0.0185697649008936 12.2382862100906884  4.5362386477220431
  0.7282010953303412 13.4531786399500479  4.6933614372069599
  0.0152527123771111 14.6608634810270662  4.8602234002346005
  0.7177616977101654 15.8718583152150519  5.0495279948670895
  0.0059110352572357 17.0834044599886461  5.1757494980337544
  0.7028042552576608 18.3019008621070043  5.3056956713010814
 33.8320213426363736 19.5205124391768656  5.3056065155326593
  0.6910753516899627 20.7432831025535691  5.3362455385409637
 33.8251435252597830 21.9575315778190756  5.1974280508912321
  0.6917878611338820 23.1758016283710226  5.1455061539574123
 33.8288864645419665 24.3848504394997576  4.9491731360664897
  0.6983459804846234 25.6020043287197225  4.8796522957322699
 33.8336345685731885 26.8189678276012060  4.7466777949785657
  0.7013569674180413 28.0406999780601929  4.7302036869047006
 33.8352910289520779 29.2642089519401125  4.7392473485260922
  0.7021810881222531 30.4857435398139494  4.8044135378506079
 33.8378994646674869 31.7068210344214307  4.9116697056110343
  0.7039142826328495 32.9287500061852327  4.9936768014523381
  0.0010032973975571 34.1513078541919270  5.1080135921877448
  0.7063104000403626 35.3765835267849553  5.1531925025273040
  0.0033580339038673 36.6035777034287264  5.2137449481841713
  0.7073247840001985 37.8308949049368479  5.2044559967630013
  2.1201218781395506  1.2376111832980103  5.0705250229879804
  2.8239942039215187  2.4596712509716605  4.9600096313663036
  2.1224074497337289  3.6843040789335659  4.8684002669148896
  2.8300084729110826  4.9043077377007815  4.7493164899240981
  2.1303377312574878  6.1268056914374887  4.6255538859163892
  2.8430064234315311  7.3495520819660509  4.5577726752252810
  2.1420049110997872  8.5741811647934529  4.4698654979785593
  2.8566789051424482  9.7984036658464380  4.5025499812820877
  2.1491354609143296 11.0229747401354743  4.5014692447925615
  2.8584180439815481 12.2410684673923686  4.6531984035733833
  2.1450515248292108 13.4570642392869360  4.7522474616737762
  2.8455476161757178 14.6661680303391098  4.9835698479286350
  2.1300675771899971 15.8759656350944489  5.1179065317765540
  2.8240927090569357 17.0870817080975250  5.3427153182344984
  2.1110630260098633 18.3035319695502317  5.4076251751398265
  2.8047834589937159 19.5248591974417991  5.5487465744468523
  2.0975061512323303 20.7446853096830992  5.4722125109835655
  2.7998324063152062 21.9676205643529201  5.4828080842855078
  2.0994639238729045 23.1792886187189708  5.2879759783925824
  2.8095083359429989 24.3943369424354302  5.2012966602336510
  2.1096256374646938 25.6026051525676976  4.9814704986929579
  2.8192767484220238 26.8173479070594922  4.8844385637064383
  2.1149484795248026 28.0370277097309391  4.7655892695349413
  2.8211889514305946 29.2586846823953159  4.7438239143133378
  2.1150567516127561 30.4831708519181781  4.7776285853194622
  2.8197544711509552 31.7055291957940923  4.8276297725975343
  2.1155474721733007 32.9278904948146689  4.9387346596150650
  2.8208397608960607 34.1508210877652090  4.9903535295823804
  2.1178214040622692 35.3748246764354377  5.0941541136580080
  2.8221418158331240 36.6005820026369335  5.1014483850492809
  2.1194083948820031 37.8282183552550606  5.1485764913290684
  2.8228399023453306  0.0101541699973865  5.0938058974373490
  4.2333093087896358  0.0057371872081200  5.0198782777109576
  4.9377087360248746  1.2291492480757151  4.9528923405826921
  4.2355653955490284  2.4550806495827784  4.9197118130209114
  4.9422388988086476  3.6773526964183434  4.8492487671278877
  4.2427282006474503  4.9025262469968620  4.7726283235116540
  4.9532308853015019  6.1253976657959797  4.7411526346934343
  4.2563985005784186  7.3505107951971560  4.6465087859391483
  4.9693814696509389  8.5736494801396788  4.6944647541069866
  4.2703796733847437  9.7997962509304593  4.6312296286755839
  4.9794407017751450 11.0184408744485101  4.7765507359455484
  4.2710358322908135 12.2411054655954796  4.7975531097150537
  4.9685233902919164 13.4505584176469366  5.0434620204995877
  4.2548247485726822 14.6669417092146670  5.1287105591757873
  4.9448795595016186 15.8733320942176270  5.4024317205882957
  4.2302756927749687 17.0890633295104237  5.4899262022868820
  4.9197214144372179 18.3046378865097203  5.7118436395642647
  4.2090680866008157 19.5264823838079842  5.7099616382527767
  4.9067374519105575 20.7525489643333820  5.8017896264268387
  4.2051654485405816 21.9709439183547453  5.6467811885867283
  4.9139138745073438 23.1910294411315476  5.5868717808414212
  4.2185318503244158 24.3965696951192683  5.3320079905068960
  4.9312510748990634 25.6055117311614637  5.1850104796202610
  4.2319945952639006 26.8141284082704416  4.9550888925352856
  4.9402844275775557 28.0291825023184167  4.8412650835054203
  4.2347612856212393 29.2523473439497934  4.7495567353973192
  4.9384612758554596 30.4761437145131069  4.7350848739635154
  4.2321944973351018 31.7016139213995487  4.7831501623058159
  4.9361378371350080 32.9246808049815343  4.8257148977555877
  4.2321034095358847 34.1487164813089947  4.9213053494656833
  4.9362191156777291 35.3725873748712800  4.9489925340000687
  4.2326997149272119 36.5978097350999434  5.0221803348777181
  4.9362754465161469 37.8225203396828817  4.9987107001398812
  6.3488140929649131  1.2257134302798112  4.9131575987050979
  7.0547114360735561  2.4489664640808342  4.8890409090867601
  6.3538417732722463  3.6746384468326592  4.8655012216607938
  7.0604964071051359  4.8974695273793412  4.8907101339999297
  6.3629305124804363  6.1238194647583333  4.8480020257082401
  7.0699054571495425  7.3444758218274933  4.9454032748143106
  6.3745497985133275  8.5710371844259825  4.8826268710541125
  7.0796682594659472  9.7870873369050333  5.0475646680842337
  6.3822128430605298 11.0140653470099821  4.9979015328236907
  7.0782789963240313 12.2235908079211626  5.2393180500933303
  6.3703557756250220 13.4456035943512830  5.2630807315753714
  7.0590522218881331 14.6523539493852493  5.5414940548279654
  6.3479190838018793 15.8719422624500428  5.5956717696296456
  7.0368419616846261 17.0843248429697070  5.8467127029708630
  6.3245726746471389 18.3058920998525068  5.8829396642975249
  7.0196749382543322 19.5300345178890176  6.0386134527988142
  6.3134329125786532 20.7550726196150954  5.9618933869054294
  7.0197740201254515 21.9814265927382877  5.9516855803135380
  6.3218838734678471 23.1942357579154397  5.7295083461300313
  7.0353678862745967 24.4053841150156074  5.5782456892493579
  6.3415452371311938 25.6048848150919923  5.2844639032019103
  7.0533943133763390 26.8103487884426990  5.0976060472200393
  6.3527419159920999 28.0230135486757312  4.8865194030523886
  7.0574250679902093 29.2442622205395324  4.8009814582553636
  6.3514188366597661 30.4695669804189393  4.7363047976799058
  7.0541411780350689 31.6948111916965658  4.7408842387262249
  6.3482691509844811 32.9207777654845515  4.7873465190262712
  7.0515139494564139 34.1447097866139586  4.8240542778650308
  6.3474732850902731 35.3697639317569639  4.8931107887386114
  7.0510592537919470 36.5943524480681504  4.9069833957825182
  6.3473013374413441 37.8198111529808472  4.9411082023468111
  7.0517972449249209  0.0001173464068693  4.9162612076250420
  8.4631621281992562 39.0415878389810516  4.8896384774354820
  9.1676569605395635  1.2220939918508733  4.8883020618976767
  8.4659217670960896  2.4472143300765516  4.8996925851354689
  9.1706596261610667  3.6696170427773942  4.9582780363952130
  8.4696201658415529  4.8943104601662473  4.9841900607490439
  9.1712501322027986  6.1110039738117914  5.1365544133214067
  8.4712094872875081  7.3363120533072701  5.1426409390538907
  9.1695272899783813  8.5478987444293200  5.3527230327968311
  8.4728565180317812  9.7755110368811273  5.3161729069476147
  9.1695258289565373 10.9847243842013924  5.5524970552028909
  8.4714432808335189 12.2123032461589727  5.5140544537344747
  9.1638672436169859 13.4208263971274260  5.7701082114088109
  8.4586301812842830 14.6460215084742327  5.7725029560626941
  9.1509172535290642 15.8598827084760448  5.9999568394689362
  8.4419037679036961 17.0829232744745880  6.0231644922666296
  9.1391426547534174 18.3047262563596647  6.1909905410034574
  8.4304329767380537 19.5312890004633530  6.1752651758012433
  9.1354516450140739 20.7596464781586327  6.2100685461330567
  8.4314911592930137 21.9826847400576746  6.0707330542170723
  9.1424966732720154 23.2017120396657965  5.9587593851203016
  8.4458367842339150 24.4065865306735219  5.6883088665915693
  9.1583208602179731 25.6116030412420024  5.4902777245595038
  8.4633805668705993 26.8113431226834074  5.1964702303952492
  9.1712065735647812 28.0252736417249935  5.0465840210878801
  8.4690780373619656 29.2409202781752953  4.8613281799661943
  9.1723330552066180 30.4653791922114330  4.7995194660757798
  8.4668632695874280 31.6907180429657629  4.7458518717822784
  9.1687596520902179 32.9165514677310043  4.7579888364573719
  8.4633623713884134 34.1418741637430614  4.7963623907217805
  9.1665600168131256 35.3666504140408833  4.8276327229709191
  8.4627494021794352 36.5917716244690681  4.8726906517509869
  9.1664015484743846 37.8166222886535053  4.8751544570502867
 10.5784788114838726  1.2223166037765767  4.8869858859995938
 11.2820577657088474  2.4456795119029899  4.9469040530530624
 10.5797718674067518  3.6682468217042277  5.0193134323754398
 11.2805424804175303  4.8833965649848112  5.1869029284493706
 10.5759178253341251  6.1031985198330307  5.2841440924403580
 11.2731388696626436  7.3110941535018812  5.5166390559000416
 10.5671279132864697  8.5334985387856346  5.5821720957163024
 11.2646083185462409  9.7417026372265951  5.8195856457928139
 10.5616542342132629 10.9690251443025613  5.8261628585625393
 11.2622186008968583 12.1810830746119052  6.0436549616976993
 10.5601805497066916 13.4094594051841316  6.0231762007069287
 11.2613494024910210 14.6277349944944426  6.2091407769964500
 10.5564023715441575 15.8555207025388754  6.1878080490372867
 11.2600261049260624 17.0785557952651068  6.3111755056686301
 10.5521577436067364 18.3051752738700344  6.2950670739560612
 11.2578316566772649 19.5320847032110585  6.3451601973583376
 10.5512163883477825 20.7590043666896342  6.2825205951342147
 11.2594651994116912 21.9835131185426604  6.2245470684859319
 10.5564282669549510 23.2009070698600333  6.0404927522054672
 11.2666956055850278 24.4133270243217098  5.8691642029916853
 10.5693793995238767 25.6154732591006713  5.5901045424810301
 11.2790248334028362 26.8238232067377425  5.3997951877008177
 10.5807145770016913 28.0290786839878123  5.1429607646517903
 11.2859875846087228 29.2470090622666028  5.0159886275098833
 10.5836733697791274 30.4645906538571261  4.8573356317424308
 11.2855335262570122 31.6901429886798347  4.8135770261072253
 10.5806171424501638 32.9150347862932264  4.7676535780689715
 11.2824556841350478 34.1414634780826276  4.7776840381600740
 10.5777955651890441 35.3662148989369030  4.8023356256614136
 11.2810122784871130 36.5918223243436884  4.8137616863518682
 10.5776768829412173 37.8165034496735331  4.8479250624558299
 11.2810870886737842 39.0417442300707691  4.8560455270729346
 12.6921369862237743 39.0436327479794372  4.8344597481486327
 13.3950516689858894  1.2245411173169269  4.8811719884520963
 12.6924092807189499  2.4461527448919873  4.9672287515140559
 13.3938061198161265  3.6641241798323021  5.1112542205517997
 12.6899018442085794  4.8796200503080582  5.2587549964486859
 13.3894631696201838  6.0887036895020143  5.4757229597406356
 12.6818860063161356  7.3022482606644914  5.6366423071381888
 13.3828981708190184  8.5118701216374770  5.8558240296463975
 12.6735585750357327  9.7315668098427484  5.9741200487040658
 13.3793093183467544 10.9467570180212022  6.1553481967018797
 12.6713908081920508 12.1723971575213827  6.2139773894507764
 13.3801505996579682 13.3941689228853154  6.3416622714915150
 12.6733557801403407 14.6227755967959183  6.3530784698436094
 13.3817402559685465 15.8485476648302974  6.4312428026973123
 12.6746083133439100 17.0766276739808802  6.4085718630151680
 13.3826006936764976 18.3036268740111510  6.4394428107100774
 12.6746569156591526 19.5312409723241878  6.4004582571473643
 13.3823025007153920 20.7578829315257991  6.3722601055207653
 12.6760197909087875 21.9814146612143411  6.2665032049179086
 13.3846375518672662 23.2011619534124236  6.1394398592913992
 12.6810475068433171 24.4143588762213213  5.9351680244104443
 13.3887021514068785 25.6246678250860427  5.7453045864311036
 12.6892896849091290 26.8284373769513991  5.4869733491129580
 13.3950563295636353 28.0419398340017487  5.3221917835464447
 12.6955663132368226 29.2511854039745351  5.1050618527861502
 13.3987277578545818 30.4742770566654606  5.0164361844564809
 12.6959373499420334 31.6929318969031186  4.8781786737609423
 13.3976123542850427 32.9192100559434522  4.8434497222929451
 12.6938363918554025 34.1431065631526494  4.7891918161170812
 13.3962362105308763 35.3693059677334674  4.7805913779868803
 12.6921185790368884 36.5940064574559543  4.7879835962260140
 13.3951561126797731 37.8194756014132665  4.7924950820191743
 14.8057930530722324  1.2260859484152240  4.8724495736765761
 15.5074034741244340  2.4478471865617388  4.9749089112382441
 14.8043136177096386  3.6641148617291233  5.1254107449388888
 15.5057119136980024  4.8786632925247684  5.2963479590388118
 14.8017458682701868  6.0883978209135936  5.4956246789412688
 15.5047597229803298  7.3017995776988851  5.6739261250815778
 14.7987066871389281  8.5124291971921746  5.8734202311364196
 15.5052319800420015  9.7299702322004169  6.0168333162552301
 14.7978652290526700 10.9470149794856102  6.1781777617027709
 15.5065575085857201 12.1708862086629583  6.2645226061406580
 14.7989577602803326 13.3945969223267358  6.3680265663537483
 15.5079363504994525 14.6214049152557859  6.4099990862028031
 14.8001947121573743 15.8479419295437030  6.4623761467027645
 15.5088256984592228 17.0750731516257908  6.4702361534052244
 14.8005660264820431 18.3030966849660324  6.4707601990596686
 15.5086524763343423 19.5311802575781606  6.4472576927835963
 14.8004514000618919 20.7571379375920912  6.3888422060226446
 15.5082794733000640 21.9804739256765025  6.2828719791980339
 14.8002401878568790 23.1997060025154234  6.1472282593251029
 15.5066033341425111 24.4150911097089285  5.9813151091382366
 14.8015061279928748 25.6266113746740203  5.7889840982864644
 15.5063160063688876 26.8406683937681372  5.6219665537393144
 14.8043036087011206 28.0496199824301158  5.4121202107763366
 15.5085528782930346 29.2692277941870600  5.2946456267101647
 14.8073475014425959 30.4821956948154238  5.1102918190640159
 15.5103981595024436 31.7049723702956676  5.0286462152357823
 14.8080162036124108 32.9232450402365657  4.8968519544332878
 15.5104162508378973 34.1481904314415985  4.8455262314710978
 14.8072778029879011 35.3712174265035415  4.7847728665366409
 15.5099555971682417 36.5969855009333145  4.7634842776163584
 14.8062880421572398 37.8215438526746155  4.7704890557575652
 15.5090445993906059  0.0032771799762082  4.7971706906371017
 16.9203422865426276  0.0052507895681099  4.7854688815955644
 17.6222254797031361  1.2292389107495356  4.8461608040503288
 16.9182494589468568  2.4491139631800394  4.9581993882578255
 17.6199662550524430  3.6692394694964658  5.0720306257338184
 16.9169280174657466  4.8818446934875057  5.2531968382304219
 17.6197214436928355  6.1000492680295242  5.3789897917929599
 16.9174402135842001  7.3081217045711639  5.5991400504904467
 17.6222811303662823  8.5282326791953373  5.7009067016642936
 16.9193040229446510  9.7380874068931522  5.9170714666714019
 17.6250684478363411 10.9625655091225163  5.9721088364099728
 16.9216923350887676 12.1772190072868280  6.1599007984072083
 17.6286402236066913 13.4034619897991778  6.1889373718334193
 16.9236871279226051 14.6237240598722220  6.3315841545186657
 17.6332739583964866 15.8492954219480744  6.3507867938462672
 16.9272641947460727 17.0750768973562010  6.4312099332250465
 17.6367681696310044 18.3015024996595308  6.4093978685317410
 16.9281018917283888 19.5302063209367702  6.4175361230061148
 17.6353526616675218 20.7554626680519938  6.3121095493080750
 16.9249176862991710 21.9786838699748550  6.2434321509650914
 17.6299759295824821 23.1960985446029113  6.0770180532843900
 16.9212925746983096 24.4138098591493424  5.9609571637249559
 17.6254091264514194 25.6289464547565906  5.7938155908234990
 16.9189114776360228 26.8446552586252274  5.6529568839338404
 17.6233910240931984 28.0618867459605994  5.5117855145756787
 16.9191239345204174 29.2771811327808393  5.3602220254993682
 17.6233275126296398 30.4968588470992827  5.2433859831280234
 16.9206512151303166 31.7123596927264302  5.0935069672477349
 17.6240822080452730 32.9337918792882220  4.9965027941031090
 16.9216124558556800 34.1523892635677910  4.8816925320481621
 17.6248944634197926 35.3765181300104103  4.8216261557424627
 16.9215344037605817 36.5992439281057926  4.7677471959314488
 17.6244377677380371 37.8246943097339781  4.7567519253826855
 19.0334031830759187  1.2303182383392546  4.8322990358882132
 19.7349560763565819  2.4537809015473302  4.8964479326623680
 19.0297732397946753  3.6725752829319158  5.0136544343400393
 19.7312351811415638  4.8953343872744091  5.0835529831689303
 19.0277698792232748  6.1085862813314735  5.2608382286598507
 19.7297462424085346  7.3320238660161259  5.3126431638360572
 19.0285528124776029  8.5407999914142181  5.5337250718766038
 19.7321794758629885  9.7643199925758157  5.5734875699470621
 19.0316584992998337 10.9743968462694585  5.7936659405304871
 19.7382910487529948 12.1966952245190701  5.8371622172226987
 19.0389446173786894 13.4090167668087599  6.0475856021994181
 19.7509007645268255 14.6292981077828994  6.1136014188247136
 19.0485969335530498 15.8502876116966309  6.2618589035701442
 19.7588852051136179 17.0741185231577184  6.2757121629262258
 19.0518589037656803 18.3007207959166394  6.3261927342910713
 19.7566700232083399 19.5248230893981756  6.2175790087268732
 19.0481319504017250 20.7500956974345669  6.1957978283518136
 19.7485015505523798 21.9665777613448192  6.0071699410051593
 19.0409705403267075 23.1898114464208973  5.9662162337524203
 19.7421730504319548 24.4031021155086876  5.7697089090983402
 19.0369964815329666 25.6255583563092912  5.7193808398157131
 19.7400324495456161 26.8396880476878117  5.5441429188746847
 19.0356281042648909 28.0618958038822974  5.4791779047990028
 19.7389374232612980 29.2785025610037160  5.3337803713810681
 19.0348688193871602 30.4994446169742695  5.2477468824064015
 19.7385288262911303 31.7181052223989290  5.1254085659740412
 19.0352490070356133 32.9374192783030040  5.0202761525241595
 19.7393430962918437 34.1583667077535083  4.9256248691629168
 19.0362542470389045 35.3786609976490851  4.8391897442673573
 19.7401541132309397 36.6025936645199081  4.7880694569418827
 19.0359664608694814 37.8261607346926496  4.7602055641547727
 19.7388416632079320  0.0071781657555066  4.7805477620634207
 21.1505630068436261  0.0088774883651965  4.8002927472703769
 21.8526604996080316  1.2330560896317246  4.8404125639275000
 21.1461309488696116  2.4557104461304036  4.8768045581179109
 21.8470847985481775  3.6803840908369354  4.9023571417370704
 21.1399374042480730  4.9008444174527845  4.9840664113521873
 21.8394045664443084  6.1260772072473797  4.9840880161190162
 21.1333334975862179  7.3419353628201396  5.1361349893031161
 21.8353111029735203  8.5659503789809719  5.1506005420417020
 21.1353050236415712  9.7747771664932017  5.3781002346413942
 21.8443602876752685 10.9942568506572478  5.4382857668842624
 21.1471296597599405 12.2007911668618814  5.6864532906377727
 21.8628595539356567 13.4141851677181503  5.7948404521495442
 21.1644727144741829 14.6277243499341090  6.0131464033652549
 21.8777908095321401 15.8474497935339809  6.0793650735088534
 21.1732201178461601 17.0729612065245462  6.1814150175029434
 21.8767569616174349 18.2974917012182985  6.0939300993965162
 21.1666877784579412 19.5207291648588033  6.0714503731671243
 21.8599576227889543 20.7352776306737248  5.8551539402863977
 21.1514140539077786 21.9574066320866095  5.8141933494673017
 21.8460183191764692 23.1676360119479021  5.5752022298120343
 21.1447012397113276 24.3931253272914503  5.5754406704313899
 21.8443057629173545 25.6056270441959661  5.3693874847037639
 21.1456676628125599 26.8322460429035594  5.3882089619517597
 21.8479148501420077 28.0484791462078604  5.2284696633957841
 21.1476941764117328 29.2742654895628576  5.2356754918299933
 21.8511690871869639 30.4930135284680404  5.1128104362011584
 21.1490553951523310 31.7170807432955719  5.0847264036614339
 21.8533467909278158 32.9371376173058152  4.9868248429294226
 21.1506039220617694 34.1593671555540936  4.9259347476226623
 21.8551994570879522 35.3821177260450384  4.8652124534224592
 21.1519406042234479 36.6045003299888094  4.8096181626323187
 21.8557646822669795 37.8288921972884893  4.8077767088601329
 23.2645882326151607  1.2342958514777873  4.8675556881129003
 23.9661722082055562  2.4592168978225506  4.8742881156644549
 23.2585738755581133  3.6820242252459856  4.8648061369452478
 23.9577576393298095  4.9073045609182167  4.8242228528502542
 23.2479521789059511  6.1292352747400392  4.8621842077895403
 23.9472052221808553  7.3546575603278654  4.8260059563192934
 23.2399956528583012  8.5721023597781461  4.9686236292944850
 23.9466899570065799  9.7933599882773699  5.0028005319888544
 23.2504239054598969 10.9995966478111367  5.2593702324855238
 23.9665508403360619 12.2103929485562688  5.3765613508227270
 23.2737224738812642 13.4133991843933540  5.6605653758946781
 23.9893056514936731 14.6264615167730305  5.7719702307023368
 23.2904528212814022 15.8448211474632075  5.9643377119264320
 23.9950947091894378 17.0704514418382836  5.9342177584706937
 23.2858649965668683 18.2958688824386932  5.9553793250245954
 23.9774165386311395 19.5135385230673393  5.7517157541871473
 23.2632951527419678 20.7300584315876648  5.6675726768227710
 23.9516474479449748 21.9373541471538758  5.3967661821224073
 23.2428841133216082 23.1579382556149795  5.3445583337777700
 23.9398301182842523 24.3696963742483916  5.1162309663342151
 23.2418771297834112 25.5963011188154432  5.1435887051111013
 23.9455043668890397 26.8142967960616652  4.9868610408010019
 23.2503135788472299 28.0417702674010521  5.0501929286116347
 23.9562600951699380 29.2627304525013017  4.9508829930250204
 23.2584809680519591 30.4886955145654603  5.0024191695822386
 23.9645410520486664 31.7108214426376911  4.9437876257985627
 23.2636472689045490 32.9359883118822054  4.9508581585377005
 23.9689265256039690 34.1590942047934618  4.9206590447567313
 23.2664795531265050 35.3827493641509179  4.8882459179966284
 23.9712814476188782 36.6068654950327570  4.8903504528165334
 23.2671995717315951 37.8303389906337273  4.8567778146869491
 23.9703832742946261  0.0108065203725475  4.8838573031139267
 25.3816627910340600  0.0125113368733928  4.9413571301800383
 26.0845649272945472  1.2377044587157611  4.9471761051101044
 25.3786470285398877  2.4609864806982586  4.8902345214417418
 26.0799950522179564  3.6854720441732742  4.8370205811119158
 25.3706610521182299  4.9072126865730823  4.7759169516582034
 26.0700902088927826  6.1307694374527069  4.6941117043123617
 25.3581870156868234  7.3539672457168113  4.7073991183761184
 26.0610629576489394  8.5777667009093594  4.6839242631068609
 25.3548553405490367  9.7953598898777212  4.8398653697271508
 26.0675179700722310 11.0109290772265975  4.9251033426165964
 25.3743146757272946 12.2124520158411194  5.2108386216875848
 26.0911218750041840 13.4204349466818833  5.3430922582673910
 25.3978308224937983 14.6260078096219459  5.6138084696752353
 26.1055075471547049 15.8463793127144026  5.6507062692717360
 25.4021416130068260 17.0688613632463984  5.7768861635539528
 26.0958522454735089 18.2929210386579264  5.6439272138049992
 25.3831217896750694 19.5121174081789910  5.5939207332684058
 26.0707017182047345 20.7224782228060427  5.3386725024378032
 25.3559804435068763 21.9335741248706420  5.2188066957006631
 26.0511685267849664 23.1430377107855847  4.9761121898465195
 25.3433625468529193 24.3648355813757327  4.9262563517454092
 26.0494301234294952 25.5841618663637078  4.7705236378255469
 25.3500703656466726 26.8110695317070586  4.8082701232280547
 26.0600293725812868 28.0347879002202554  4.7400341147631062
 25.3637209976946423 29.2606471964369383  4.8228420528242584
 26.0732748581351004 30.4841706782062936  4.8269301382345020
 25.3751044563618002 31.7094859529833570  4.8934767425841841
 26.0815078344173195 32.9333335525064044  4.9241318031379677
 25.3802542600380932 34.1585693286914491  4.9394977436362115
 26.0850209262442547 35.3826713152924768  4.9748156485947685
 25.3822037360078738 36.6074663952004045  4.9500940593175349
 26.0859349141176793 37.8319204527710653  4.9830672302604029
 27.4959702970639697  1.2392999083177083  5.0003508170544810
 28.1991744512635805  2.4643422540590638  4.9534766470054592
 27.4927936315891515  3.6856768028872540  4.8466513768252648
 28.1950960855755355  4.9074105797516765  4.7411936924976334
 27.4844154687091482  6.1281353400734169  4.6500547175192972
 28.1869936439445858  7.3504476661703695  4.5608719569627718
 27.4751418339396061  8.5742477945111428  4.5854656535547633
 28.1829822497243434  9.7959728759319944  4.5956179605159511
 27.4783811188364275 11.0103452554161638  4.7818833539961512
 28.1932055399209567 12.2220192626766568  4.8885782597869829
 27.4973067795714883 13.4233150179740139  5.1667859190104073
 28.2090835561380615 14.6365769453197014  5.2580875474694011
 27.5094098350039786 15.8472818522257004  5.4722925428989564
 28.2096973576831687 17.0707502916949174  5.4443604549215525
 27.5005780746179909 18.2916812706200815  5.4898401806149622
 28.1925884895930068 19.5106271445800274  5.3229674528981246
 27.4791414229166939 20.7232956268957231  5.2163243091178648
 28.1758071785832094 21.9336030451871622  4.9970959913797950
 27.4630036652245870 23.1455852435317126  4.8668618249211448
 28.1691877196017586 24.3635600264897541  4.7120843836029991
 27.4626052746638578 25.5866981781245180  4.6637697560187510
 28.1738622006559538 26.8116340347591340  4.6096018590992580
 27.4725855864867903 28.0373789334521923  4.6547025265900288
 28.1838528254017859 29.2613333652856511  4.6989971240029140
 27.4853780866659640 30.4852144396463665  4.7940712950308040
 28.1926073017971746 31.7073136558064661  4.8851089956736624
 27.4928277551093672 32.9325446828204349  4.9484087181930665
 28.1978030686531405 34.1557601990635433  5.0304416151057296
 27.4956304229154007 35.3816166039717857  5.0407622266555316
 28.1992608836385727 36.6067734275355008  5.1000667376633402
 27.4963167122719234 37.8324162999671358  5.0620107593407955
 28.1999895325713084  0.0149326741068904  5.0760537018070560
 29.6112884489856576  0.0161742009110612  5.1392707743035251
 30.3153142099778421  1.2426562560783188  5.1033339898345531
 29.6114724331941090  2.4659095977000356  4.9898250372280737
 30.3155247207397025  3.6879951051362720  4.8804510964506420
 29.6093014441084854  4.9068242033109426  4.7405477769178352
 30.3132109926881768  6.1263101042722559  4.6061162989185087
 29.6032614134217944  7.3477988302986308  4.5156643325017862
 30.3093681664624413  8.5706070452388303  4.4434042375786467
 29.5986053751910596  9.7940166291390724  4.4972631548483823
 30.3093780589678410 11.0145159411809477  4.5396652776639721
 29.6041643164925432 12.2246202133107698  4.7428422735708873
 30.3169136316362042 13.4372883791546389  4.8532581989829993
 29.6152304685857537 14.6406880513152338  5.0947607627379901
 30.3219438092149680 15.8575867302943596  5.1663463245458967
 29.6152165389631463 17.0716792509154089  5.3080333316328421
 30.3134471374297831 18.2944217521692423  5.2736082227677619
 29.6017886565161668 19.5118424367638532  5.2439870542929148
 30.3007425275846174 20.7299479172399259  5.1183966105475047
 29.5895390533339331 21.9395797162969153  4.9721126577330210
 30.2953948927517409 23.1559020684790831  4.8410556686775417
 29.5862038768103019 24.3697807186012767  4.7054185129449868
 30.2958961112773153 25.5923573714281929  4.6448441773774345
 29.5901365994136825 26.8154371071670496  4.6000673182001615
 30.2998748925276402 28.0397761523675157  4.6356004121169994
 29.5973022142631592 29.2638060161414728  4.6969072328207755
 30.3052197245180217 30.4845102429317549  4.8056982893982090
 29.6045980558157638 31.7073366998786241  4.9054892283518816
 30.3105305859138987 32.9287555928924078  5.0200881191471307
 29.6090482730946221 34.1540883811788731  5.0837590570635180
 30.3134132377568939 35.3790609195641963  5.1617148543201088
 29.6102588160738378 36.6059886495447842  5.1667867756060559