 C  N  H Fe  S  O 
 1.0000000000000000
    33.8551833179000994    0.0000000000000000    0.0000000000000000
     0.0000000000000000   39.0620977498184274    0.0000000000000000
     0.0000000000000000    0.0000000000000000   20.0000000000000000
 C   N   H   Fe  S   O  
 572  12  72   1   4   8
Cartesian
 12.1639133588903849 14.1193883522916401 11.0348032023307336
 13.4663227564072283 13.6747089450109396 11.3161866699333746
 14.3434211202996629 14.6659860629483401 11.7832282969992352
 13.8916989491237146 16.0034601237617409 11.9270809983301689
 11.7699012710968471 15.4666478432827201 11.3035116939483302
 15.0848897089555223 16.8237523817032937 12.1618364669238233
 15.7886707416011980 14.6810460499566631 11.9811033568895393
 16.1551082704542388 18.8898442343235047 12.2358572295537691
 18.3062818072841900 19.5859536759948618 12.2981420314120662
 16.1299876424853323 20.3465977643624534 12.1195644849770794
 17.4761810458455642 20.7912913659266607 12.2118034075491817
 16.9095747482502787 22.9613983957071106 11.8204936859234415
 15.5551333007230710 22.5849133512504245 11.5820036328215679
 15.1257507347700066 21.2554076903334384 11.7605379683703575
 17.8537877695654750 13.6113152296377766 11.8952095733342809
 20.0017627888828571 14.3133488537948104 11.9225481444437662
 19.2661400760556134 10.3984958486897607 10.7615481825037023
 20.6332976255181926 10.8008655336545605 10.6560137111097486
 21.0544613274591690 12.0639242726120592 11.1055022963141496
 20.0302740807975965 12.8952914752418444 11.5828375233067309
 18.6854038564180449 12.4436250811168403 11.5780868647913238
 21.0700581380312855 16.3748236002378675 12.0257807631332891
 20.3634731266787803 18.5200165249783915 12.1032916330020690
 22.2455555981340680 17.2151651591902848 11.7722389961166467
 24.3081023704595474 17.8046266878430401 11.0084590411055387
 23.8891743964732797 19.1608168523671765 10.8643471287307154
 22.6129066640198104 19.5776853974963636 11.2871069266143405
 21.7861889148176466 18.5585638414447054 11.7779054276686495
 12.0408350590167501 24.9265800402243833 11.5448850016285309
 10.9254514912773413 24.0789227945538649 10.9869096340230179
 12.1478536142743412 26.4022165828252895 11.2740441285902158
 13.1847984331435502 24.2031828089460923 12.1593984022108330
  9.6719186444219396 24.8147349938066384 10.4830886112929615
  8.5840769853183190 23.8392763335690034  9.9995000156875875
 12.5862639562779624 26.7557454215697454  9.8227210203373332
  7.3785972274499985 24.5642363345634536  9.3771952083909191
 26.4873686358643994 22.4793155656999666 10.5778641998229297
 25.7557596332059191 23.6724994573171870 10.0215996416169055
 27.9151088249897157 22.1978641446252851 10.1924925305415570
 25.6865225340733652 21.4255852861027734 11.2515230883927391
 26.6033097610841978 24.9399464910681168  9.7990150781286847
 25.7692315725876533 26.1058987764132802  9.2397109020988406
 28.1146255152688376 21.9166588743624082  8.6762514345063426
 26.6363872238266843 27.3216706512741290  8.8712496161457075
 22.9417183592989069  7.2988514775517404 10.3122365287032380
 24.2735891136030091  7.5603155817777266  9.6603793545280432
 22.1486424853155981  6.0648658327673823  9.9704723240290392
 22.2865823727202219  8.4222324740692311 11.0288415716745618
 25.2007962179118223  6.3379609882747880  9.5063330773053707
 26.4773237458614226  6.6764273244999970  8.7166585655574735
 21.7985344230991593  5.9363783101085934  8.4636267773284430
 27.3911807309286530  5.4541068339278382  8.5284229405015548
  8.4999795940723093 12.1569551157384055 10.3882611185943681
  8.6392041013987875 10.8402620497368662  9.6722208317397786
  7.4103440074527214 13.1235734945987925  9.9998993757714718
  9.6318193464892694 12.6200768241828527 11.2306953226765778
  7.3352086058438504 10.0283586177508646  9.5186757911535729
  7.5239105831335973  8.7878303253435952  8.6281215676237704
  7.3562445599095927 13.4542807653824301  8.4841343765949091
  6.2335054549950772  7.9625359489106309  8.4908979438043168
  6.4880495697570550 26.1162175462269417  3.7241213050115620
  7.1930552248451249 27.3383105158424868  3.7021617656008923
  6.4885004095483438 28.5605430216908545  3.6707685302135262
  7.1940150967635823 29.7823421303707931  3.6399705382399321
  6.4894471395790374 31.0043011160757516  3.6006967344168999
  7.1958519635837881 32.2259161889814294  3.5740704507199923
  6.4907952174463093 33.4477906802823952  3.5442444580697403
  7.1980881038100772 34.6693573759791533  3.5438378511582402
  6.4919988172380974 35.8908247717662050  3.5443007121654220
  7.1995407799587694 37.1114752758296547  3.5852263251752658
  6.4924177809808166 38.3314725643137137  3.6196764822552057
  7.1992780914460033  0.4882870696685034  3.6956048901870542
  6.4916669598504351  1.7068544559777863  3.7469755830958662
  7.1971605690806566  2.9249670892696682  3.8353858425518976
  6.4896470723624091  4.1436010013723799  3.8756399919323443
  7.1940137557012998  5.3627621906252552  3.9469273120409882
  6.4870838877322416  6.5823930634692367  3.9475131269945303
  7.1917809926758478  7.8026794584124550  3.9756196674149020
  6.4857124169704754  9.0219925604302187  3.9252264271521540
  7.1917461071227660 10.2418564495560371  3.9091532816538037
  6.4860825997429785 11.4605147213210525  3.8329503594136485
  7.1928110453882219 12.6799876938438754  3.7997407601697022
  6.4868914038656049 13.8994600775627255  3.7379780384810561
  7.1932855741312469 15.1196979818592503  3.7141651368139761
  6.4873552275224373 16.3407505206481503  3.6891020547038424
  7.1931452273566467 17.5619284109176270  3.6873739214341223
  6.4876086227090592 18.7836700875427134  3.6957037822656020
  7.1929568136277471 20.0052517024926111  3.7097664344855543
  6.4877966659975570 21.2272596700058891  3.7282792067219339
  7.1928282490662534 22.4492128559705897  3.7392579927593839
  6.4878889079754911 23.6715691382541422  3.7448979277358556
  7.1927708974503783 24.8937732980498687  3.7394041386302042
  8.6049033076159898 27.3377981979556814  3.7055623930085000
  9.3101741004039749 28.5597974537398258  3.6839971838699719
  8.6061215557947506 29.7821388944666445  3.6500086108636780
  9.3123106181485866 31.0039284895409502  3.6295759549410960
  8.6084922049993420 32.2261904311304548  3.5926108275933260
  9.3157396827305661 33.4479298957652418  3.5924346367555282
  8.6113225820195218 34.6700858676070425  3.5728410120388538
  9.3188042127293933 35.8912221798912725  3.6148910917544801
  8.6129345729172027 37.1123438170030653  3.6260603695929623
  9.3193257341909117 38.3315652472443205  3.7138249472552900
  8.6120488898882996  0.4888983636330710  3.7485083751629062
  9.3165924581671824  1.7064066500470803  3.8631661926678618
  8.6087852399977489  2.9251689500327260  3.8986970882720415
  9.3119634694523175  4.1431337677410394  4.0080660914997859
  8.6047610133478276  5.3627674726317300  4.0157766693775940
  9.3082991724184208  6.5827317094446069  4.0843102578330157
  8.6024555284631692  7.8028054192867451  4.0428251970274722
  9.3079148723669149  9.0231379028471732  4.0510163678882138
  8.6031685871420809 10.2419382975666782  3.9658186496407222
  9.3099208131507396 11.4610095213650904  3.9284685299703579
  8.6049054349736203 12.6793959123213167  3.8364134325295716
  9.3114253808585712 13.8983887317028802  3.7889908984029157
  8.6056721311429349 15.1185032693241332  3.7280222371067824
  9.3112704585062485 16.3390430240039457  3.7000213269570899
  8.6053970970609175 17.5608014609773804  3.6855131716911158
  9.3104321822217955 18.7823384698233262  3.6855211671113342
  8.6049688586795856 20.0044071193198754  3.7024492459347642
  9.3098014191419161 21.2262379260498975  3.7144070685777804
  8.6046887106663306 22.4484806806598804  3.7332099039073401
  9.3094488951887513 23.6705963452761203  3.7365014508709820
  8.6045776814639012 24.8931057758994854  3.7374528544450620
  9.3094086731083046 26.1152992664187131  3.7252351218091762
 10.7211132279294770 26.1144973702113958  3.7232304258649620
 11.4259788468450285 27.3366754025690568  3.7134541379345443
 10.7219160042452764 28.5592589519053526  3.6946940147838241
 11.4275060890519224 29.7812948614973543  3.6877663203888824
 10.7242189059919681 31.0039042241286751  3.6572779281881020
 11.4307943405581920 32.2257753875123072  3.6686625604065544
 10.7278302837101354 33.4484554036201089  3.6409349955317123
 11.4347032192263338 34.6696709196166708  3.6917556738544781
 10.7307687925229818 35.8918574361858305  3.6845184532637223
 11.4364200742983986 37.1111350495797225  3.7835206897227418
 10.7306298626571834 38.3318545226436527  3.8003967673900902
 11.4341885212594256  0.4868789873761446  3.9333407843765937
 10.7269049353297934  1.7063212108549592  3.9604344538417520
 11.4288971502609016  2.9232939377340448  4.0975514555763199
 10.7214926556614145  4.1430032193009483  4.1086388294578082
 11.4237526756071315  5.3622677844055344  4.2124664178109921
 10.7178307534256785  6.5828494767460022  4.1791447127539785
 11.4222209742602665  7.8038294227384162  4.2194936749177057
 10.7182134000260572  9.0232556310737042  4.1314175566555473
 11.4246432344639715 10.2429473047162194  4.1066529053046006
 10.7211978339822274 11.4603190628317844  3.9869636077825583
 11.4278677817402468 12.6785470858949054  3.9277132939709181
 10.7233946782615970 13.8966584266461943  3.8204852022184084
 11.4290138786547946 15.1160629810525791  3.7670645727819219
 10.7234578378109084 16.3370645384495141  3.7078815013988500
 11.4281082212884328 17.5584551063682639  3.6863625867779422
 10.7224372981656231 18.7808626721440248  3.6795295855089485
 11.4268152973033388 20.0028415302939138  3.6852268004151862
 10.7215940848274176 21.2252190648117640  3.7037028613151217
 11.4260421267649317 22.4472941797664163  3.7125685377798741
 10.7211453049563392 23.6697280666892702  3.7271641033364240
 11.4257139652198614 24.8919337102545768  3.7249743034686777
 12.8375008382618017 27.3359868370024905  3.7171636750585701
 13.5424231711822713 28.5581629224865523  3.7242960039165163
 12.8389032926140594 29.7808770520017170  3.7158019562333537
 13.5443902813730634 31.0027303399805803  3.7438828013085104
 12.8416996105088757 32.2256456384915566  3.7289182457157621
 13.5473041619993442 33.4465645107245919  3.7939659522658982
 12.8446730175300665 34.6693916130698838  3.7846812392727740
 13.5491837029968085 35.8883125469357367  3.8951656455068862
 12.8453665314502086 37.1103326634104747  3.9000523026570981
 13.5480196414151113 38.3270867380312126  4.0453982139172719
 12.8424857712964666  0.4858945479941439  4.0605861555621079
 13.5436717597332947  1.7021797080498786  4.2160047482549841
 12.8370163873769663  2.9227237715273655  4.2250378853377004
 13.5382542282114589  4.1411719635988229  4.3569664245288342
 12.8321510258853699  5.3623703562053340  4.3326575550562660
 13.5353632585406789  6.5837114958662530  4.4065139031128560
 12.8312952220159051  7.8043065916102980  4.3260963499866758
 13.5370587763459067  9.0255122937673544  4.3254519251071075
 12.8346533968235068 10.2429966372626797  4.1935374799373655
 13.5415129683467512 11.4615965043790187  4.1356529951898864
 12.8388706408092474 12.6774614414344882  3.9891285625783741
 13.5449407620523097 13.8956528336802538  3.9154446349439018
 12.8407486863301781 15.1141306823343342  3.8011615924237301
 13.5453842824571762 16.3347321233037128  3.7521038226151022
 12.8400292085222087 17.5565810376456319  3.6978417091258797
 13.5438867935233205 18.7788250712516884  3.6866433853125602
 12.8385386407124784 20.0015492739718042  3.6821080962430557
 13.5424538601910527 21.2238991871035338  3.6892849406342760
 12.8375677380758138 22.4464256402022819  3.7021385992990101
 13.5417627514202472 23.6686962588081968  3.7057124552253700
 12.8372085420568744 24.8911662055305456  3.7157242408022642
 13.5416882067355004 26.1134330368697398  3.7153419842866198
 14.9530113330033281 26.1130703385112497  3.7098530233007718
 15.6574933624366821 27.3353966830554320  3.7236181408978419
 14.9536829438282748 28.5578254563017815  3.7396450390762497
 15.6583575794950516 29.7796466068879511  3.7795583369232739
 14.9550204102270854 31.0021604884988058  3.7954124278134382
 15.6594363403556311 32.2226837433453071  3.8727425597130782
 14.9564010662394580 33.4452679973089673  3.8877571808007079
 15.6598429554371048 34.6636572641976670  4.0067726388838896
 14.9565275630532000 35.8860718519702075  4.0231270558465386
 15.6586421733098469 37.1024725098092532  4.1743653728840400
 14.9544609160640576 38.3245648184914174  4.1910234556706758
 15.6556081512380167  0.4784770492748685  4.3541454055278166
 14.9503237775720983  1.7004356089725206  4.3638200545795076
 15.6514576960176068  2.9184070769321364  4.5120227462160400
 14.9457872894227766  4.1407766018468664  4.4965178108784780
 15.6484610528072068  5.3622014297576479  4.5967334489934144
 14.9439058426792606  6.5843817930130006  4.5316253904865196
 15.6491125337278039  7.8072135644890581  4.5574066520506262
 14.9464632338466981  9.0263262422562907  4.4320082936627783
 15.6534044877988503 10.2464745201581540  4.3842238662714319
 14.9517129294736968 11.4616545144324729  4.2200587693728755
 15.6583516062788224 12.6792828670683431  4.1333350458522276
 14.9558774461887261 13.8947151516265368  3.9758805479374422
 15.6609208843045113 15.1138170285672917  3.8976662569675060
 14.9568157828932886 16.3332591526089139  3.7889612218440920
 15.6605030131330647 17.5551605123259229  3.7494005682023617
 14.9554487442336139 18.7774997035097186  3.7024376155435617
 15.6588388801933434 20.0002676474085455  3.6960203440845918
 14.9538831361062066 21.2230372333719046  3.6886808910948181
 15.6576545609619835 22.4456232032089069  3.6902817053052739
 14.9530717578999575 23.6681820525446511  3.6962641952578079
 15.6572300748973667 24.8906212693736393  3.6979085003757439
 17.0686896077843500 27.3355771267787375  3.7248006135854479
 17.7729606272369018 28.5576751366050203  3.7643462263498177
 17.0692918282580273 29.7795240132505512  3.8066205033505800
 17.7732364879578171 31.0001035306808959  3.8856484385245982
 17.0694378490806002 32.2214389846466247  3.9384303265062082
 17.7726090730463717 33.4397408474694373  4.0570805942083386
 17.0683453229499023 34.6609369773789382  4.1111098577862641
 17.7707938153972407 35.8774087141607012  4.2582481679913098
 17.0660296193142500 37.0990176672324452  4.3051702321870220
 17.7682413555740197 38.3152997464795959  4.4630203606122940
 17.0629233622053924  0.4755963761208714  4.4959440850445898
 17.7653782556524007  1.6936776375457256  4.6444169854103574
 17.0596107849534349  2.9170988506121973  4.6519876837416021
 17.7631066793718304  4.1386412645480295  4.7637955402607037
 17.0577632908626136  5.3626431773158858  4.7254626498626822
 17.7631541742355488  6.5867726250865877  4.7709865821606039
 17.0592349609296363  7.8085367309356650  4.6694682183582916
 17.7662539417581371  9.0309418940844015  4.6359249775989655
 17.0638408858319082 10.2475197915694540  4.4771677992314078
 17.7707179844564145 11.4658837318198952  4.3859187666595778
 17.0689221960963877 12.6795982910786567  4.2072083858955400
 17.7743592062258742 13.8973568973065582  4.1048294637752054
 17.0716926497165105 15.1135469824525757  3.9531979791260157
 17.7756109777684053 16.3341122464812969  3.8800142188241282
 17.0715844747159728 17.5545272157131933  3.7849776534862425
 17.7747856170183454 18.7772229733981320  3.7520800831799321
 17.0701118818857260 19.9996658207138331  3.7108702558666962
 17.7735273196887746 21.2226069586652599  3.7002668441123721
 17.0689222937586642 22.4452893382855549  3.6887759412407215
 17.7727713196520618 23.6680399356082916  3.6847178230955659
 17.0684581584756607 24.8906044867830509  3.6903275864047518
 17.7726196430520744 26.1132417411623763  3.7003093892592496
 19.1837799103121256 26.1136459641177936  3.6959484838034502
 19.8877844119575045 27.3362981887016545  3.7239832532935218
 19.1840319441308473 28.5581860504107183  3.7700619365281502
 19.8878714930373590 29.7795371890047846  3.8370836253224336
 19.1841266028171376 31.0000370077420691  3.9123669573689162
 19.8875871802282802 32.2191948955754341  4.0177323567202921
 19.1832796821780498 33.4384599881296296  4.1104656780059106
 19.8865784150255429 34.6558512835742292  4.2418438951440383
 19.1813998957239029 35.8751243167116556  4.3355949813682582
 19.8850693618035343 37.0922872544036011  4.4763473206917084
 19.1791107530653129 38.3128682290192302  4.5571253649472325
 19.8834540446342025  0.4693620483232378  4.6922401153981017
 19.1768539546497614  1.6920331317345854  4.7469753129352821
 19.8820883468601011  2.9136848067222290  4.8554619248372362
 19.1754416381316091  4.1385536783304122  4.8646866561149897
 19.8819532849540010  5.3633284128648597  4.9159553748662681
 19.1759168264084181  6.5879713782591969  4.8628781858426118
 19.8829882303195049  7.8123848602712656  4.8411522815889159
 19.1783893561653223  9.0324898214705041  4.7177495162359904
 19.8851394664025172 10.2525542684105080  4.6279810615469961
 19.1820481398699663 11.4671873714595822  4.4567144468243978
 19.8874845816161603 12.6844953966469163  4.3367365520152443
 19.1850526117175910 13.8985263337776566  4.1648135092636114
 19.8892488253446835 15.1172503732531371  4.0595880986637418
 19.1862490335899523 16.3348528765007686  3.9264475276537181
 19.8896324213000923 17.5564023470930906  3.8594616741307304
 19.1857198236769797 18.7774400318196797  3.7799226710192304
 19.8890103340494093 20.0002499909548419  3.7464845558724358
 19.1846714790800483 21.2226100783911420  3.7091330328764061
 19.8882887227705822 22.4455161778460095  3.6926119893822000
 19.1839691101351235 23.6681467344432903  3.6816612323204017
 19.8878446703799696 24.8910772517285039  3.6809009905693619
 21.2988787069594281 27.3368331695145947  3.7218347957053224
 22.0026320700748101 28.5590929177671597  3.7688009840806718
 21.2989019419722858 29.7801565215009063  3.8382104895998359
 22.0025197150778453 31.0007697701811615  3.9202910636185218
 21.2988402516483326 32.2197123381086143  4.0243708287673261
 22.0026220221882021 33.4387004216688197  4.1310507096794584
 21.2985504025106103 34.6561476715149794  4.2553864653845146
 22.0029788266308444 35.8746009190627149  4.3721440834235761
 21.2981601404917988 37.0922268327521536  4.4992718916052121
 22.0035652435375404 38.3113325289573439  4.6151036374647383
 21.2977700778876944  0.4688962193474911  4.7270961053719045
 22.0042161238639871  1.6901325412297463  4.8265865472208800
 21.2974643393761554  2.9134254530028256  4.8985766680784746
 22.0045606185390739  4.1381170618551524  4.9508886268573917
 21.2975151126642039  5.3636935819444975  4.9564006776827636
 22.0044362907376581  6.5890939305630720  4.9403120735465800
 21.2978245857376791  7.8130176029552185  4.8793987289113980
 22.0040080342572359  9.0350541008463168  4.7940506263272118
 21.2983568943581325 10.2535911055034994  4.6670118795900182
 22.0033537535745580 11.4709178819411690  4.5335484931998158
 21.2992480485013687 12.6860423786174366  4.3767362903834641
 22.0032889817928243 13.9030330952446395  4.2436109764653818
 21.3000842291243302 15.1190917973450922  4.0989215740793936
 22.0036756522216344 16.3387043104146201  3.9979101504579537
 21.3003411860238288 17.5577869928234058  3.8906948627213640
 22.0037647712770301 18.7796126676261856  3.8277625404234739
 21.2999339647275683 20.0009443993605380  3.7629906734390377
 22.0034953177667134 21.2235484330655559  3.7279239073119581
 21.2993816870499728 22.4458331897059935  3.6962557350819099
 22.0031055422526585 23.6687518753175361  3.6819132911731560
 21.2990017986561462 24.8914322143499334  3.6788152194448820
 22.0028275774904927 26.1144207159187154  3.6911748784881979
 23.4139921344910000 26.1147737464497105  3.6918782021044376
 24.1178047123139088 27.3374801786847819  3.7186155072127418
 23.4137146642187517 28.5594843937049667  3.7638934516466858
 24.1173605330960505 29.7813233124810246  3.8188973287961243
 23.4135712660374686 31.0016084581018667  3.9048319385796662
 24.1173543482695578 32.2222938962021956  3.9815708176411864
 23.4139455052581589 33.4403202365406358  4.1032093449599261
 24.1183464589003371 34.6602115360963339  4.1918366683348864
 23.4151084463809376 35.8766387819128170  4.3368922108332502
 24.1205992471949457 37.0962469522321996  4.4307735392047123
 23.4171201369062807 38.3128099164797078  4.5822892739615417
 24.1239442288391537  0.4710625192758776  4.6710411757005321
 23.4194722509871660  1.6905004748844501  4.8023913954345998
 24.1270951183525284  2.9136521536072428  4.8583157453063306
 23.4208981673160679  4.1376746539165277  4.9340108217240282
 24.1281817039464208  5.3631851686954235  4.9220314741672535
 23.4204964987962541  6.5886334213791180  4.9226330268931040
 24.1263116728405826  7.8118129674873424  4.8356888961161957
 23.4185861499486521  9.0344441537730269  4.7718035826994898
 24.1226523409957458 10.2521642174530303  4.6274065132123186
 23.4162898338539556 11.4708273950405548  4.5197231882181086
 24.1195069139489071 12.6865393923974175  4.3649452960829338
 23.4149345628013705 13.9041960517061653  4.2467314986766382
 24.1182929028159059 15.1219052305142654  4.1183738658794864
 23.4146190383310042 16.3405420888616391  4.0127764490877036
 24.1181717864447656 17.5607490395262253  3.9211917675391339
 23.4145662548121827 18.7810199613699460  3.8419017936211541
 24.1182451893194667 20.0027367028748380  3.7840467596436560
 23.4143994592582878 21.2243041507889636  3.7352641228066141
 24.1182277205489335 22.4467932376656307  3.7055502761565338
 23.4142135222103320 23.6691948746980430  3.6849373100654641
 24.1181080221496842 24.8921194066770397  3.6826399836534200
 25.5290173103418567 27.3376405064969283  3.7178769159559484
 26.2328161848979171 28.5600633793858449  3.7471439171522958
 25.5284350117417134 29.7816556127101961  3.8010330405717863
 26.2320871480336741 31.0036351976891602  3.8452920667368717
 25.5281532844820624 32.2235183875432369  3.9392707017243724
 26.2321217421942059 33.4448473101106174  3.9957060155638642
 25.5289931372139840 34.6624547132215355  4.1274256230664621
 26.2339613465761126 35.8829201488511913  4.1950261671956319
 25.5317633155768284 37.0986476495740263  4.3547900234965740
 26.2383405992419760 38.3184207303209661  4.4293066139326385
 25.5364225748313061  0.4725011294595134  4.5941086571154734
 26.2440982646927559  1.6936241876925311  4.6509039021889045
 25.5409299885307135  2.9139694637803153  4.7813951945808579
 26.2477100211570509  4.1380978985140455  4.7770447816263060
 25.5421795843056110  5.3623202236034562  4.8388271456733341
 26.2461903783676220  6.5854486397303793  4.7507561054008658
 25.5391340259580417  7.8094260989582134  4.7448822520006404
 26.2410153476128301  9.0278665268369256  4.5949009118830819
 25.5340780680126507 10.2493764124078428  4.5429565086961823
 26.2357622521381764 11.4647254925690216  4.3744302741710861
 25.5305648241446477 12.6851909310892523  4.3056796020382722
 26.2333047264230785 13.9018475594471429  4.1601952865445702
 25.5293121658372577 15.1223294581538905  4.0898759615542160
 26.2327925959602410 16.3412573619086068  3.9786888130880320
 25.5290564109113411 17.5618789860381206  3.9129561319382762
 26.2328947200875540 18.7824915022927286  3.8345637968322537
 25.5290974689449222 20.0037089994331758  3.7837352002959679
 26.2332641451514981 21.2255200869123577  3.7383378408767642
 25.5292841732143927 22.4475243335895946  3.7090451679707499
 26.2335459400574642 23.6700675768609017  3.6940848430294220
 25.5293476652684852 24.8925664469265620  3.6878011813442981
 26.2334243106488003 26.1152685459045948  3.6979538201065845
 27.6447834625101834 26.1155094438756130  3.7013566238123419
 28.3489072193415623 27.3380367952600736  3.7115562820023640
 27.6440690995309950 28.5601430914953127  3.7344205389940424
 28.3477772511617019 29.7826696954312276  3.7489022900669919
 27.6429440117384040 31.0040804778689427  3.8042057667352802
 28.3464798735493986 32.2264263364483980  3.8265059902773677
 27.6422637194751815 33.4461338689596275  3.9243295407554717
 28.3464558978379202 34.6676766730646690  3.9611890075581604
 27.6436377579237949 35.8848141752077723  4.1015535754667285
 28.3495004618389359 37.1048717506290870  4.1556533161670641
 27.6482680010178825 38.3200677121542128  4.3244477215901798
 28.3557359247593688  0.4775452638710625  4.3790914022825023
 27.6545938295472773  1.6944245915815550  4.5393186258241105
 28.3613651140531680  2.9164411709078122  4.5512438659460042
 27.6579250932431719  4.1378447414668509  4.6551720741258560
 28.3613016136148062  5.3606466703927316  4.5859338674765056
 27.6552561886483126  6.5835985773091101  4.6177287407551795
 28.3556020912184579  7.8027014579960392  4.4757035889668204
 27.6489751800027079  9.0245491021780122  4.4589574486228924
 28.3490015518534832 10.2402072608262014  4.2872640825142785
 27.6439374575426484 11.4616793448944634  4.2560586059566505
 28.3460451648393317 12.6781381505612032  4.1035102904219540
 27.6427378447397594 13.9002744056284495  4.0756987338654396
 28.3463782707070493 15.1189038041330388  3.9584147832421817
 27.6431921628076473 16.3409877498108855  3.9289036009248717
 28.3473335857412074 17.5611478393999398  3.8422233149668479
 27.6437182553829679 18.7829738539542817  3.8108043949420063
 28.3482548352847914 20.0042976494311162  3.7558371772390418
 27.6443586553539369 21.2263069252339847  3.7324600519946221
 28.3490586522380070 22.4484203078406068  3.7093876599866284
 27.6448649158961253 23.6706939200310771  3.6984914709077561
 28.3493381343861799 24.8931779157765583  3.6980848902398540
 29.7603906917859256 27.3381491347679280  3.7068209346132441
 30.4644270709687213 28.5606551346661313  3.7022004038532779
 29.7590248348810817 29.7826708360641348  3.7184094368131020
 30.4625303254521391 31.0052569219729079  3.7113669565425962
 29.7570096003319726 32.2266687260431439  3.7631139915076259
 30.4606277388034243 33.4489623553507727  3.7680737979830421
 29.7560667076466814 34.6684574517049953  3.8690645084785018
 30.4610243068025994 35.8894410401593404  3.8969409481539903
 29.7584894935963433 37.1059640099963914  4.0440660847871897
 30.4653874025104372 38.3252439082502647  4.0889343696436242
 29.7644695901273586  0.4783815248938478  4.2553557844000043
 30.4717560523031423  1.6982235687194944  4.2833988506505101
 29.7697751810214761  2.9165437854708944  4.4181362593707458
 30.4741753367659456  4.1384818700747870  4.3812956045793063
 29.7687881257089551  5.3599002358533294  4.4436480617698759
 30.4694042753001142  6.5800246584727384  4.3276826504724220
 29.7621459589504838  7.8008261679898343  4.3270061039548402
 30.4618144590864439  9.0174334542025054  4.1683887451611641
 29.7555633015467684 10.2378766041236400  4.1459262661622285
 30.4576045681874810 11.4546242625044510  3.9971419112836521
 29.7538303058837172 12.6764369203158349  3.9853228171282877
 30.4582697558258815 13.8954046820321082  3.8736206394551900
 29.7556861163029467 15.1180160407899766  3.8727213511284200
 30.4608338696802008 16.3385477059404671  3.7944994585644261
 29.7578200531539068 17.5610490583128289  3.7907919606296243
 30.4630230600402570 18.7824810174725627  3.7405459331673079
 29.7593805384845638 20.0047947489208866  3.7340897358755321
 30.4645445550908462 21.2267956328068337  3.7125461755977920
 29.7604406601873812 22.4490635001746455  3.7081819847052260
 30.4653090519719534 23.6713215302429489  3.7064923994891079
 29.7608167898004581 24.8935747782663803  3.7037674027117440
 30.4653103793307700 26.1159744824417963  3.7059814887016040
 31.8769123607286105 26.1162355524468488  3.7099559861188141
 32.5813746891265694 27.3386163881783233  3.6997181009700979
 31.8760572785803653 28.5606376171517304  3.6885316555863303
 32.5800023804377403 29.7829756872519908  3.6645506714676017
 31.8739216515288319 31.0049083773323382  3.6691227991723618
 32.5775647129778747 32.2272617834150523  3.6473901968373439
 31.8713019570548042 33.4486676060310160  3.6940057948739358
 32.5756493240095111 34.6705053620659029  3.6935790029502580
 31.8706844683606825 35.8896600496809128  3.7958850470024159
 32.5767338051290452 37.1098340928928394  3.8222624911730763
 31.8740362744478887 38.3259305273787163  3.9686055959884641
 32.5813442637437163  0.4828006418556770  4.0025060697699164
 31.8795741170588478  1.6988121804843168  4.1513534342916705
 32.5855148065499804  2.9191573628527996  4.1496039110727176
 31.8814831913659553  4.1384548223890505  4.2451589405613364
 32.5839167465412061  5.3593391737056519  4.1746006706064378
 31.8767860656339046  6.5794824911982852  4.1945222709895740
 32.5776695834345560  7.7978216609919686  4.0702133872270982
 31.8698974744136763  9.0169055334978747  4.0443114458515979
 32.5726560264998213 10.2343412523250610  3.9134628494523582
 31.8666376457601430 11.4544399790181313  3.8879201687515401
 32.5720447413877707 12.6737167090526039  3.7887401184248199
 31.8681418836996535 13.8955116662965263  3.7854290043661680
 32.5746498183011894 15.1164665260958646  3.7246662201894800
 31.8714953870489950 16.3388538447710232  3.7337990534700523
 32.5777608276451431 17.5605650775573814  3.7009898841452999
 31.8742937501061512 18.7829630063380613  3.7098844015461321
 32.5800358541071446 20.0049907595761240  3.7000102432267719
 31.8760583407409008 21.2273119867888411  3.7066789083686604
 32.5812750763799102 22.4494671065796219  3.7120717030142543
 31.8768632355003199 23.6717391327084670  3.7133105848384442
 32.5816786027929695 24.8940412206370425  3.7175494470024759
  0.1379544990512807 27.3387604521736947  3.6986429369492182
  0.8424346473419841 28.5609425697615897  3.6714617304234261