 C  N Fe  H 
 1.0000000000000000
    21.3773318017707261    0.0000000000000000    0.0000000000000000
     0.0000000000000000   24.6471522006256727    0.0000000000000000
     0.0000000000000000    0.0000000000000000   20.0000000000000000
 C   N   Fe  H  
 232  16   1  24
Cartesian
  0.0002227661262686 24.6351322174484615  3.6061472527418519
  0.7108645232072666  1.2204512284856610  3.6008973948109499
  0.0001909368614953  2.4528929898688450  3.6029215320175960
  0.7110210683390177  3.6852215001410431  3.5922633159295483
  0.0001675719375076  4.9175734693149922  3.5877565158294638
  0.7114348290493269  6.1498403888972915  3.5698500217724698
  0.0001312575423884  7.3820826137668840  3.5696452148889604
  0.7112475721344915  8.6144760641260234  3.5542903321895096
 -0.0000240445493285  9.8473656562369012  3.5595415058381139
  0.7115856361035124 11.0794785939894496  3.5574999865476142
  0.0007673049314651 12.3114960044543214  3.5723940240161163
  0.7121582129917532 13.5436928094847122  3.5726080104308737
  0.0010039149413482 14.7760408462192068  3.5862485306543701
  0.7118477311210449 16.0082251321850642  3.5793951413605258
  0.0007632313777169 17.2404828119386622  3.5938142562463420
  0.7112040225831642 18.4729874535595791  3.5804060544535559
  0.0003651749312405 19.7053043871848992  3.5964385103326402
  0.7108288751277133 20.9377297785074248  3.5844819235821062
  0.0001915094451508 22.1702570467153777  3.6010267199319577
  0.7107592893808037 23.4027078514113711  3.5944686227883160
  2.1382539072037310  1.2206461395817354  3.5858400964193700
  2.8490624465446732  2.4531303939782148  3.5785451823322560
  2.1384490925450508  3.6854996764519874  3.5804842675799522
  2.8492540744939143  4.9178618009591268  3.5612230951631418
  2.1386250026250848  6.1499773712121062  3.5514252589627082
  2.8496043995728968  7.3818418916098842  3.5315399697581364
  2.1388332401310315  8.6142740590928657  3.5370473582683983
  2.8492283744089191  9.8470240284898907  3.5326062684561883
  2.1389904692486499 11.0793478117044870  3.5445377704105621
  2.8499833676881408 12.3112041947244606  3.5402999309383283
  2.1394936478344322 13.5433396118198353  3.5518462057448557
  2.8502424745453565 14.7756829653884925  3.5346549905352020
  2.1391448722326176 16.0077735976062847  3.5476006501859740
  2.8493248959399189 17.2401259117825845  3.5226434494528518
  2.1382971461025395 18.4726733239679284  3.5420487559846903
  2.8483641469967744 19.7051287899208099  3.5222807862435204
  2.1379053151158462 20.9375970440668624  3.5497298707866261
  2.8482871691887506 22.1701997488296456  3.5421461150507723
  2.1379922851786306 23.4027078999007507  3.5696317273427800
  2.8486422457928229 24.6351988760879443  3.5677270763430720
  4.2758694103834074 24.6354192061114929  3.5428886815874883
  4.9865529931509611  1.2208791222408404  3.5437292457053058
  4.2763381938830376  2.4534558757692646  3.5601883649390960
  4.9869332337762486  3.6858038457046312  3.5489477388234505
  4.2764824376781938  4.9183098449680589  3.5482228374191460
  4.9868715658930416  6.1503105430943998  3.5288133788914919
  4.2761579600531361  7.3818066084682572  3.5213521427115255
  4.9861195210706324  8.6139438178167200  3.5143892017633838
  4.2763562988323676  9.8465288568856231  3.5208913856638899
  4.9860107520365657 11.0791423632235730  3.5214580679841263
  4.2766311683336138 12.3111392972493565  3.5225769165318783
  4.9870310096513188 13.5431684753883133  3.5039552408848520
  4.2766983680565822 14.7754989521621436  3.5019151154356640
  4.9868662701130377 16.0072417701578331  3.4705877698734837
  4.2760025211841803 17.2396079786271983  3.4772818875781120
  4.9857673033965773 18.4721547625531137  3.4515423865982839
  4.2753257500185740 19.7047401252086622  3.4786639652568763
  4.9857120146792608 20.9375259408867862  3.4765253138890961
  4.2753921700178132 22.1702053133386840  3.5094963359709057
  4.9860430799504574 23.4028721721968687  3.5134290133338859
  6.4136371864574766  1.2210686536789270  3.5218669100214002
  7.1242302038979028  2.4537426937005815  3.5176267914330022
  6.4140404879772150  3.6862443506690594  3.5284149483695497
  7.1243771007758463  4.9184809701000374  3.5130990907627662
  6.4135879358662686  6.1500788054520594  3.5165265684735543
  7.1234851803735326  7.3813200558486720  3.5117404895603284
  6.4126619093031092  8.6128537337604083  3.5189397307668018
  7.1229420400834620  9.8456406245534680  3.5396504682677139
  6.4132653054493591 11.0786665343227941  3.5328879968385216
  7.1238669950559066 12.3113162715793649  3.5272431302885483
  6.4131315780876079 13.5438052349613631  3.4932588109227041
  7.1240083022072787 14.7752060260526026  3.4631402231028279
  6.4133390062635662 16.0072218603478795  3.4446019978890878
  7.1242564784704285 17.2390983288102007  3.4264326113261978
  6.4133118527785609 18.4717905121650112  3.4274642043621499
  7.1239873752045408 19.7048097236695448  3.4293001372769840
  6.4131713601067588 20.9374778125277246  3.4532011390246540
  7.1237528932972065 22.1703643863833761  3.4668925315728840
  6.4132197066346981 23.4029244742580111  3.4919067496530261
  7.1238169336284916 24.6355058405641358  3.5000271272870198
  8.5510115871350898 24.6353754491132833  3.4877128096768879
  9.2615310455106368  1.2212160285401210  3.4880660838013937
  8.5513655671288156  2.4539187161709322  3.4962853439458157
  9.2615594329085091  3.6865087097737650  3.4842713334439477
  8.5509426017598607  4.9183420927090733  3.4922716744034221
  9.2612479881712790  6.1500169962565767  3.4869728626562320
  8.5500234667787502  7.3809315181403736  3.5058395348732101
  9.2610617132688553  8.6128398382469200  3.5323408884973939
  8.5494565196016090  9.8447284240792747  3.5627586024833100
  9.2610817858861623 11.0786011845829613  3.5828381170202741
  8.5499908552198800 12.3124342617635634  3.5484545679138519
  9.2616469660651806 13.5440566903341875  3.5113611147166761
  8.5513497774712857 14.7755206560150238  3.4675800572587825
  9.2622554711874461 16.0074671698943050  3.4521895008469983
  8.5516109902310298 17.2393597136435552  3.4321958231215759
  9.2617590499808991 18.4717114228736285  3.4442587122646620
  8.5515759110445426 19.7045194258842322  3.4360804164522079
  9.2614856056242747 20.9369350315687157  3.4600190618362903
  8.5509949559890135 22.1698845943530962  3.4655475953233879
  9.2614784286139180 23.4026784644751373  3.4784845552111681
 10.6888205321611807  1.2207962555392520  3.4813280725973277
 11.3993373041305581  2.4536886219716880  3.4735473394895759
 10.6884712044976933  3.6863116102456868  3.4707507884331399
 11.3995528992216020  4.9185624110074029  3.4743129188798463
 10.6881481201229711  6.1508020354896260  3.4817649317364916
 11.3994185589858876  7.3822404499252290  3.4958305950046582
 10.6879865695196443  8.6141862363337705  3.5237330049938582
 11.3993002793966198  9.8467082571596531  3.5361900226052825
 10.6898855209665378 11.0785361766117560  3.5594231069424795
 11.3992747743707987 12.3114519983904493  3.5335095758290440
 10.6888742735930631 13.5435126837875721  3.5149365180119303
 11.3990566634363120 14.7757471596857002  3.5029000823576899
 10.6884804343636635 16.0073055953350902  3.4820248261661564
 11.3985702239042581 17.2393077622298954  3.5004222848829860
 10.6883969288472844 18.4715261151188059  3.4828026831487819
 11.3986148840297314 19.7041208135615484  3.5059424209974437
 10.6885829221415634 20.9368414467076711  3.4888846019157835
 11.3990551488816791 22.1696358464840522  3.5029782085006502
 10.6887603704496126 23.4024566161791725  3.4887021505780242
 11.3993254457743358 24.6350679977313192  3.4914751242890900
 12.8265021150820093 24.6349333539779671  3.5107194606158139
 13.5370961267607708  1.2206616459417781  3.5101132639271881
 12.8269050204373531  2.4535274055525478  3.4845125861934578
 13.5373081541941644  3.6864044091567396  3.4885772841553342
 12.8267600032862124  4.9188798366662425  3.4812881510584197
 13.5364413324893551  6.1510212407126437  3.5004122495692558
 12.8259257578338399  7.3828062518836362  3.5004004698247138
 13.5359616097514959  8.6146441176849269  3.5153423491777982
 12.8260891797778900  9.8465769226537159  3.5194385816102720
 13.5361919971522937 11.0784776695259559  3.5205404199877459
 12.8260759549071075 12.3108384313808514  3.5215990062840321
 13.5358221046479965 13.5436701010901661  3.5248882416049137
 12.8255457755405526 14.7754442547400409  3.5238671563533419
 13.5355702282623636 16.0072807333345715  3.5469509446515302
 12.8250659863671554 17.2393417624380731  3.5401736102826598
 13.5355524887325966 18.4718597076499904  3.5637998975027800
 12.8254543049969296 19.7044732359711325  3.5455522851509880
 13.5361169398811096 20.9370205058963634  3.5587670227331842
 12.8260728541179692 22.1696887557829356  3.5333082295948959
 13.5367044660735090 23.4023305773081134  3.5370942783229395
 14.9642345242789823  1.2206218436625940  3.5400560660151297
 15.6744357903912839  2.4534158761572629  3.5460011653953800
 14.9639697175739101  3.6858575279270975  3.5228732484729401
 15.6738486168559739  4.9184931633550697  3.5413064379893440
 14.9629974091333278  6.1507421516779841  3.5285732863831196
 15.6731810561211802  7.3830210673217804  3.5441677517056460
 14.9625809538003374  8.6148419555139313  3.5319404872756062
 15.6729688173275559  9.8469691198408178  3.5396417575487997
 14.9629108589601181 11.0786872560649030  3.5273011940547039
 15.6730726746476066 12.3105920737462942  3.5352008281552201
 14.9629168464823223 13.5432505820434770  3.5377336249186557
 15.6730464287586049 14.7755342076499918  3.5603699570561282
 14.9622936208583841 16.0075052294319882  3.5720186759124637
 15.6732072937100995 17.2398167032320977  3.5985515639588379
 14.9626283788485601 18.4724038354686542  3.5954781727985043
 15.6734780782296550 19.7048666052673909  3.6080241025094901
 14.9631493159587947 20.9373073004832442  3.5899783068927738
 15.6739842352220009 22.1698998912852332  3.5925378144792344
 14.9637839596515132 23.4024815056506057  3.5662697226814277
 15.6744312932817280 24.6351116746159668  3.5671725343256662
 17.1016468214059714 24.6351316602393631  3.5918518244626139
 17.8121296912716609  1.2206397293285733  3.5934620436698941
 17.1015433840032678  2.4531301578131406  3.5756576362790438
 17.8118783016537208  3.6856473920744919  3.5822912203953523
 17.1010696978731715  4.9179922436760029  3.5693037428257464
 17.8114165920815779  6.1504720798826469  3.5773528921116640
 17.1003833268498084  7.3825342852707339  3.5667036174850781
 17.8111421706478339  8.6147517246482153  3.5714964291952125
 17.0999423486627968  9.8469737041063077  3.5587966008880541
 17.8112251567405977 11.0790326203018381  3.5609322596059680
 17.1002848611091558 12.3110302278640678  3.5506821202767158
 17.8116420612699216 13.5435225599152442  3.5673767834844101
 17.1006221785084342 14.7760646274891752  3.5746161558292839
 17.8117372330668324 16.0081167246569507  3.6008347984941280
 17.1006035336826727 17.2403723516847691  3.6128815439053579
 17.8116900838752414 18.4728530287091175  3.6248137612780962
 17.1008672797721459 19.7052169940567801  3.6235093365156463
 17.8118592413312307 20.9376405007120709  3.6238513391067380
 17.1013353375316335 22.1701678356923715  3.6118631446698601
 17.8121291590564077 23.4026694032956009  3.6095055264000560
 19.2395027486678174  1.2204983366598805  3.6069184279651481
 19.9500937746580540  2.4530112311032104  3.6045297011958382
 19.2393123982180150  3.6853231743934551  3.5963125678859980
 19.9499730991888349  4.9177531018317948  3.5926910616839818
 19.2388930573122074  6.1501033481824416  3.5865946260537163
 19.9497389121458397  7.3823096944230908  3.5808782686826000
 19.2386964466001587  8.6146456965639580  3.5771972048216361
 19.9500191747096061  9.8470661339454448  3.5717055505500559
 19.2387887722722297 11.0793993659529448  3.5721500898565663
 19.9503212632931124 12.3113752735772763  3.5777018898058661
 19.2393333524729826 13.5437664822193042  3.5823871669396619
 19.9506627005503816 14.7761149000121428  3.5945258969653198
 19.2394966068711248 16.0082977800981290  3.6057649636514881
 19.9505016327073079 17.2406548130908490  3.6117971979178036
 19.2393775533753661 18.4730552212856907  3.6218227755655343
 19.9502150489733019 19.7054005998534585  3.6178777289480739
 19.2394085583422232 20.9377824220560491  3.6227991781118343
 19.9501457209698607 22.1702726520071067  3.6166465259153657
 19.2395289273294949 23.4027016227329554  3.6161073252410283
 19.9501620731954930 24.6351567059771241  3.6125851776254381
  3.3926673738099957  8.3719847885648875  6.9075785010943500
  5.5324363942632262  9.1131694727171038  6.8328450065879798
  5.0834357429091428 10.4468329615974067  6.8607680372124502
  2.9345227510329583  9.7323725883451768  6.9397870078590280
  6.2721236907587343 11.3007075876296668  6.8222991334707679
  6.9941181841641962  9.1568934376539808  6.7880540386446402
  7.2986272447179790 13.3740700732181690  6.8256118166313513
  9.4407368650999732 14.1028075496034173  6.8163842686466420
  7.2539578574831332 14.8363374724154280  6.8624319532699163
  8.5860219099835628 15.2905464191470895  6.8491361559185657
  7.8687464526911857 17.4397638611300252  6.9026281698786445
  6.5106171711788701 16.9764935724017327  6.9193752185937392
  9.0672400398456308  8.1301971576569212  6.7720184464740498
 11.2124466012680148  8.8528954802582636  6.7806608479516317
 10.6145957954111427  4.7843771290593740  6.8796459815694258
 11.9765160767344359  5.2398022080471618  6.8746517096880453
 11.2502112207506979  7.3875765644112974  6.8112737647280195
  9.9160341670642307  6.9399232720286799  6.8106823710041073
 12.2394152047587639 10.9299574399167945  6.8244910400000558
 11.5157140532911555 13.0757289834918566  6.8411882688848360
 13.4258362719696951 11.7836358326289758  6.9042802107068297
 15.5738255474850185 12.5002481932593081  7.0284068458697639
 15.1134480483141331 13.8601874584062497  7.0420584974764342
 12.9751231299811014 13.1183055047304542  6.9175197012829539
  5.3685035032035744 17.9524742897310610  6.9639554171957121
  8.1750307066650905 18.9105772802432988  6.9226052071606778
 16.0927923445338621 14.9975436618375415  7.1237984920248065
 17.0421895782495270 12.1877733542526183  7.1049536861166835
  1.4655565527329495 10.0384543604100411  7.0035733366534600
  2.4121711038705671  7.2345823782469019  6.9517263399396976
 10.2954203905928647  3.3164094638749115  6.9433330574115004
 13.1125247948675856  4.2575718300440650  6.9283676412471840
  4.7010105697000606  8.0556042321406522  6.8537932801317805
  3.7817080298458254 10.7803206937922162  6.9165295430009124
  8.9178502074143591 16.5939011794324642  6.8687649888284765
  6.1963927121519662 15.6655768747121957  6.8991453552106421
  9.5733515122549697  5.6389567576632853  6.8437462025168507
 12.3009809804376182  6.5482910157019649  6.8389451227489921
 14.7288042507284729 11.4528331573374729  6.9577154356387965
 13.8048884463595556 14.1754015913159073  6.9876550893956422
  7.4116546864725814 10.4922624128692785  6.7795756695370359
  6.2119040253761817 12.6204994811914712  6.8362233097552281
  8.6327504824420984 12.9602889493701792  6.7899108468740472
  7.7454931812826802  8.0691930896608426  6.7778245403154926
  9.8774916856098418  9.2699998795634855  6.7464465598123429
 12.2965835846539839  9.6073276302803574  6.8162883107374581
 11.1015067673056027 11.7408389975967218  6.7817490946373180
 10.7609919898248698 14.1631503282414872  6.8388807343942615
  9.2576807209453982 11.1153705895899932  6.7015494449118895
  5.3816736548884627 18.5293865599250154  7.9026019237890024
  4.4187670254458160 17.4108835838132130  6.8885997814607780
  5.4333808935552597 18.6803752183644711  6.1434821308534806
  7.8262641601331140 19.3704686752606179  7.8611045395884318
  7.6632290522464421 19.4344330474181604  6.1030598370511226
  9.2563005223571722 19.0630248474287605  6.8274212974658868
 16.6481058568027045 14.9694754887145951  8.0753738519013361
 15.5592619328068160 15.9524705709134835  7.0490080953565215
 16.8406820333934775 14.9400866498426179  6.3196824312527644
 17.4650724682580822 12.5285956019597826  8.0639709381819653
 17.6055377138367248 12.6990488243973783  6.3113522619015239
 17.1912208700754903 11.1059609546931437  7.0113870991896921
  1.0042215983562002  9.5765501517573615  7.8907707079238145
  0.9385532533117895  9.6321110566228008  6.1277218343931095
  1.3152551643036110 11.1234164038386965  7.0397858217583895
  1.9009879275393486  7.1999922006577703  7.9281057058653417
  2.9385518192378464  6.2861317252281532  6.7930007048746619
  1.6294935858636641  7.3466108581550262  6.1886956145842973
 10.6175119797956494  2.8918921317032700  7.9080663747182918
 10.8189402313818110  2.7531163430972749  6.1583002859737777
  9.2150004498003106  3.1689478999469189  6.8324442168810382
 13.1293969676737845  3.7438226086671174  7.9029012919924622
 14.0627737022412607  4.7849310279448858  6.7881180075859699
 13.0131482496757993  3.4784210966503828  6.1605910029524562
