 C  N  H Fe  H 
 1.0000000000000000
    34.0474999999999994    0.0000000000000000    0.0000000000000000
     0.0000000000000000   39.1338999999999970    0.0000000000000000
     0.0000000000000000    0.0000000000000000   30.0000000000000000
 C   N   H   Fe  H  
 604  20  52   1  16
Cartesian
  9.7481397249999997 16.6671280099999990  9.8447999999999993
 11.1083373499999993 16.3114008589999955  9.9153000000000002
 12.0439626499999992 17.3378830559999990 10.0556999999999999
 11.5686595500000013 18.6750884189999979 10.0998000000000001
  9.3865552749999992 18.0477720019999985  9.9234000000000009
 12.7627053749999995 19.5442523379999962 10.1741999999999990
 13.5189003500000009 17.4098894319999999 10.0989000000000004
 13.7776613500000007 21.6696144470000007 10.2597000000000005
 15.8879254000000003 22.4914263469999973 10.4315999999999995
 13.6506641749999993 23.1199167810000006 10.3098000000000010
 14.9526405750000002 23.6560512109999976 10.4646000000000008
 14.1222220499999995 25.7802393029999983 10.6506000000000007
 12.7824529249999994 25.3301994529999988 10.4162999999999997
 12.5413966250000009 23.9632523259999992 10.2642000000000007
 15.6581047750000000 16.4284112199999974  9.9962999999999997
 17.7727950000000021 17.2486577639999972  9.9519000000000002
 17.3271132249999980 13.1290321109999972  9.4890000000000008
 18.6975251000000000 13.5704625029999999  9.4914000000000005
 18.9699050999999983 14.9362356129999991  9.6483000000000008
 17.8875350749999988 15.7944420399999998  9.8250000000000011
 16.5750039499999993 15.2661343899999995  9.8441999999999990
 18.7693653250000025 19.3830206700000005 10.0752000000000006
 18.0339393249999986 21.5076001009999942 10.3899000000000008
 19.9647730500000016 20.2298782659999965 10.1954999999999991
 22.1499416000000018 20.7511418139999968 10.4786999999999999
 21.8271712999999998 22.0734762949999954 10.9146000000000001
 20.4812736250000000 22.5004271439999997 10.8554999999999993
 19.5180698499999998 21.5565174759999998 10.4588999999999999
 13.1491445000000002 27.8355517309999918 11.4921000000000006
 11.9047083750000002 27.4316898829999971 11.1890999999999998
 10.5577892749999993 25.9391229370000005  9.7221000000000011
 15.3213749999999997 28.0750511989999936 10.7381999999999991
  8.7730193249999999 29.1664956699999962  8.7965999999999998
  9.8036371499999984 28.2852002419999984  9.1418999999999997
  9.5210428999999994 26.9566043370000017  9.5726999999999993
  8.1550571999999999 26.5613519469999950  9.6387000000000000
  7.1292060249999993 27.4649536979999986  9.3437999999999999
  7.4308668749999995 28.7685039069999959  8.9094000000000015
 18.1629793500000005 29.0291356809999961  8.5692000000000004
 19.0570667000000000 27.9521707529999972  8.6702999999999992
 18.7346368749999996 26.8466380779999980  9.4727999999999994
 17.5068840250000015 26.7793277699999983 10.1390999999999991
 16.5784087000000007 27.8590320709999943 10.0490999999999993
 16.9662097249999988 29.0044813240000003  9.2850000000000001
 24.3020840749999998 20.8943718879999913 11.5424999999999969
 23.9323282249999991 22.0449085479999951 12.1301999999999985
 22.9670816000000002 24.1483556729999940 11.9102999999999994
 23.9837399500000004 19.5012050479999992  9.5121000000000002
 22.5673639499999972 26.2064074739999953  8.8413000000000004
 22.5976662250000011 25.0644802720000008  9.6479999999999997
 22.4035954749999995 25.1697504629999997 11.0574000000000012
 22.0515443249999983 26.4443415859999931 11.5910999999999991
 21.9419113750000001 27.5600490749999949 10.7625000000000011
 22.2500412499999989 27.4567355789999965  9.3911999999999995
 27.7340720750000003 19.9168070659999970  9.0441000000000003
 28.1508134749999996 18.5764709909999972  8.9987999999999992
 27.2019096499999975 17.5531195059999980  9.1752000000000002
 25.8509048500000027 17.8614946379999999  9.3675000000000015
 25.4157778000000008 19.2123968659999989  9.4598999999999993
 26.3932815250000026 20.2361396899999981  9.2949000000000002
 18.1445936999999979 10.9559266439999963  8.7914999999999992
 19.4183106750000007 11.3738766960000000  8.8137000000000008
 21.0733596500000004 13.0906808889999979  9.4653000000000009
 15.8930325249999989 10.9434037959999966  9.2697000000000003
 24.3878837749999988 11.6908612859999970  8.3475000000000001
 23.3007470999999988 12.5482850349999993  8.5488000000000000
 22.1628796499999972 12.1311176609999993  9.2942999999999998
 22.2204199250000016 10.8522218089999996  9.9209999999999994
 23.3392207750000011 10.0237571459999959  9.7671000000000010
 24.4161432000000005 10.4237056039999985  8.9562000000000008
 12.4024828249999999  9.8997026829999957  9.8807999999999989
 11.6697806249999996 11.0940693110000002  9.9648000000000003
 12.3343878249999985 12.3271784999999969  9.8502000000000010
 13.7211425000000009 12.3913580959999958  9.6731999999999996
 14.4964040749999992 11.1942520949999977  9.5769000000000002
 13.7824279999999995  9.9529247869999988  9.6707999999999998
  7.1227369999999999 17.4251516530000004  9.3044999999999991
  7.4638929500000000 16.1317762579999986  9.2370000000000001
  9.0552730999999991 14.3406176549999991  9.8273999999999990
  7.5898687000000002 19.6730028689999976 10.2042000000000002
  5.7911392749999999 12.4672778619999960 10.4486999999999988
  6.7648977749999997 13.4718450749999992 10.5042000000000009
  7.9613269249999998 13.3740103249999969  9.7371000000000016
  8.1404167750000003 12.2136901899999994  8.9394000000000009
  7.1360155249999995 11.2447348259999984  8.8391999999999999
  5.9576315499999994 11.3609625090000002  9.5973000000000006
  3.7905081749999998 19.6859170560000010 10.6644000000000005
  3.4575236249999999 20.8583686999999998  9.9644999999999975
  4.4799700500000004 21.6160010039999975  9.3644999999999996
  5.8153129999999997 21.2168352239999969  9.4740000000000002
  6.1680450999999996 19.9958575439999926 10.1148000000000007
  5.1193820999999993 19.2452693419999967 10.7229000000000010
 33.5398517750000025  0.6719290630000000  4.7823000000000002
  0.2032635750000000  1.9007335230000000  4.6419000000000006
 33.5470017499999997  3.1350167289999997  4.5213000000000001
  0.2175635250000000  4.3552117309999998  4.3319999999999999
 33.5691326250000017  5.5824508349999995  4.1285999999999996
  0.2522919750000000  6.8053852099999999  3.9885000000000002
 33.6007967999999977  8.0384943989999993  3.8268000000000004
  0.2883823250000000  9.2692555539999990  3.8220000000000005
 33.6236086250000028 10.5066694719999987  3.8087999999999997
  0.3054060750000000 11.7296038469999964  3.9647999999999999
 33.6297371750000025 12.9478421539999964  4.1267999999999994
  0.3020013250000000 14.1523835960000000  4.3905000000000003
 33.6253110000000035 15.3490982579999997  4.6440000000000001
  0.2873609000000000 16.5540310389999981  4.8966000000000003
 33.6133943749999986 17.7601378369999985  5.0742000000000003
  0.2669324000000000 18.9842462289999965  5.1894000000000000
 33.5950087249999996 20.2020931969999964  5.1458999999999993
  0.2502491250000000 21.4277669449999983  5.0955000000000004
 33.5830921000000018 22.6291776750000011  4.8521999999999998
  0.2458229500000000 23.8485899989999979  4.7400000000000002
 33.5783254500000012 25.0433479659999918  4.4367000000000001
  0.2417372500000000 26.2701957310000012  4.3670999999999989
 33.5681111999999970 27.4809985969999993  4.1325000000000003
  0.2250539750000000 28.7168471589999967  4.1490000000000000
 33.5473422250000013 29.9456516189999959  4.0652999999999997
  0.1998588250000000 31.1811088420000004  4.1609999999999996
 33.5292970499999967 32.4118699969999966  4.2453000000000003
  0.1858993500000000 33.6426311519999999  4.3691999999999993
 33.5269137250000000 34.8690875779999914  4.5510000000000002
  0.1910064750000000 36.1002400719999983  4.6247999999999996
 33.5347446500000004 37.3321752439999912  4.7826000000000004
  0.1995183500000000 38.5664584499999918  4.7499000000000002
  1.6244062250000000  1.8897760309999996  4.5567000000000002
  2.3404251499999997  3.1154497790000000  4.4639999999999995
  1.6424513999999999  4.3489503070000000  4.3578000000000001
  2.3700464750000001  5.5718846819999985  4.2822000000000005
  1.6799036500000000  6.8038198539999977  4.1055000000000001
  2.4160105999999999  8.0287109240000003  4.1120999999999999
  1.7207606500000001  9.2653421639999998  3.9761999999999995
  2.4521009500000002 10.4898418949999996  4.1112000000000002
  1.7411891499999999 11.7249077789999987  4.1031000000000004
  2.4582294999999998 12.9372760009999990  4.3643999999999998
  1.7343796499999999 14.1547316300000006  4.4901000000000000
  2.4371200500000003 15.3561423599999980  4.8153000000000006
  1.7112273499999999 16.5634231750000005  4.9779000000000000
  2.4037534999999997 17.7746173799999987  5.2572000000000001
  1.6822869750000000 18.9924643479999986  5.3055000000000003
  2.3731107499999999 20.2220514859999980  5.4489000000000001
  1.6594751500000000 21.4391157759999977  5.2916999999999996
  2.3564274749999998 22.6698769309999975  5.3178000000000001
  1.6516442249999999 23.8689396269999925  5.0100000000000007
  2.3540441499999996 25.0973527479999987  4.9977000000000000
  1.6496013750000000 26.2901540199999921  4.6517999999999997
  2.3520013000000000 27.5201324969999988  4.6500000000000004
  1.6404085500000001 28.7258479559999991  4.3727999999999998
  2.3407656250000000 29.9577831279999920  4.3940999999999999
  1.6223633749999999 31.1807175029999968  4.2599999999999998
  2.3237418750000001 32.4126526749999968  4.2938999999999989
  1.6080634250000001 33.6422398129999962  4.3224000000000000
  2.3159109499999997 34.8722182899999993  4.3433999999999999
  1.6084038999999999 36.1002400719999983  4.4772000000000007
  2.3206775999999998 37.3294358710000012  4.4595000000000002
  1.6165753000000000 38.5598056870000008  4.5912000000000006
  2.3288489999999999  0.6543188079999998  4.5288000000000004
  3.7465869000000001  0.6457093500000000  4.3962000000000003
  4.4639677249999998  1.8702090809999998  4.4187000000000003
  3.7629296999999995  3.1037096090000000  4.4657999999999998
  4.4830343250000002  4.3266439839999995  4.5149999999999997
  3.7891462749999998  5.5628838849999998  4.4315999999999995
  4.5157199250000000  6.7834702259999995  4.5144000000000002
  3.8303437499999999  8.0201014659999998  4.3586999999999998
  4.5572578749999995  9.2395137900000002  4.5087000000000002
  3.8671150499999998 10.4784930639999967  4.3850999999999996
  4.5821125499999997 11.6939919979999960  4.6341000000000001
  3.8749459749999997 12.9282752039999984  4.6181999999999999
  4.5715578250000002 14.1335993239999986  4.9568999999999992
  3.8517936749999997 15.3557510209999997  5.0346000000000002
  4.5358079499999997 16.5610751409999999  5.3889000000000005
  3.8133200000000000 17.7812701429999969  5.4645000000000001
  4.4939295249999995 19.0034218399999979  5.7411000000000003
  3.7758677499999997 20.2302696050000002  5.6930999999999994
  4.4622653500000000 21.4661181669999976  5.8401000000000005
  3.7513535500000001 22.6847478129999942  5.6322000000000001
  4.4442201749999999 23.9213790529999990  5.6892000000000005
  3.7431821500000000 25.1220071049999945  5.3567999999999998
  4.4462630250000004 26.3527682599999977  5.3463000000000003
  3.7479487999999996 27.5436128369999977  4.9782000000000002
  4.4557963249999997 28.7700692629999928  4.9272000000000000
  3.7516940249999999 29.9691319589999985  4.6139999999999999
  4.4585201250000006 31.1940230289999931  4.5359999999999996
  3.7455654749999998 32.4110873189999964  4.3479000000000001
  4.4503487249999996 33.6371524059999985  4.2618000000000000
  3.7353512250000001 34.8671308830000015  4.2381000000000002
  4.4431987500000005 36.0947613259999969  4.1738999999999997
  3.7350107500000003 37.3243484639999963  4.2807000000000004
  4.4493272999999993 38.5508048899999949  4.2618000000000000
  5.8854508500000007  1.8604256059999995  4.3956000000000000
  6.6007888249999995  3.0747505229999992  4.5738000000000003
  5.8994103249999998  4.3074683729999999  4.6512000000000002
  6.6120245000000004  5.5210106120000004  4.8491999999999997
  5.9191578749999998  6.7615552419999991  4.7897999999999996
  6.6348363249999993  7.9754888199999998  4.9920000000000000
  5.9518434749999996  9.2179901449999999  4.8561000000000005
  6.6647981249999999 10.4319237229999988  5.0927999999999995
  5.9763576750000000 11.6740337089999997  4.9893000000000001
  6.6743314250000001 12.8844452359999959  5.2986000000000004
  5.9688672249999994 14.1199024590000004  5.2839000000000000
  6.6528814999999994 15.3291399689999963  5.6352000000000002
  5.9378839999999995 16.5595097849999959  5.6691000000000003
  6.6184935249999999 17.7797047870000000  5.9834999999999994
  5.8977079500000000 19.0092919249999994  6.0003000000000002
  6.5796793750000004 20.2439664699999931  6.2297999999999991
  5.8622985500000002 21.4755103029999930  6.1274999999999995
  6.5524413749999999 22.7176202889999921  6.2462999999999997
  5.8415295750000000 23.9393806469999930  6.0137999999999998
  6.5473342499999996 25.1764032259999944  6.0053999999999998
  5.8459557499999999 26.3778139559999971  5.6634000000000002
  6.5619746750000001 27.6003569919999983  5.5514999999999999
  5.8629794999999998 28.7912015689999983  5.1803999999999997
  6.5779770000000006 30.0059178250000009  5.0087999999999999
  5.8755770749999998 31.2010671309999950  4.6725000000000003
  6.5841055499999994 32.4142180309999972  4.4712000000000005
  5.8725128000000000 33.6293256259999893  4.2507000000000001
  6.5762746249999999 34.8518686620000011  4.0922999999999998
  5.8626390250000000 36.0853691900000015  4.0545000000000000
  6.5732103500000001 37.3149563280000010  4.0140000000000002
  5.8680866250000001 38.5461088219999937  4.1360999999999999
  6.5861483999999999  0.6347518579999999  4.2305999999999999
  8.0079719999999988  0.6292731120000000  4.2057000000000002
  8.7216076000000005  1.8377279439999996  4.4447999999999999
  8.0195481500000003  3.0563575899999993  4.6623000000000001
  8.7263742499999992  4.2573769809999993  4.9557000000000002
  8.0209100499999995  5.4897034919999994  5.0715000000000003
  8.7273956750000004  6.6973756459999993  5.3418000000000001
  8.0297623999999992  7.9418336660000000  5.3193000000000001
  8.7396527749999997  9.1553759049999996  5.5620000000000003
  8.0522337499999992 10.4025732980000001  5.4618000000000002
  8.7573574749999992 11.6180722319999958  5.7219000000000007
  8.0621075250000001 12.8617475739999971  5.6610000000000005
  8.7525908250000004 14.0768551689999981  5.9733000000000001
  8.0484885249999998 15.3173997989999986  5.9561999999999999
  8.7376099250000010 16.5411168519999983  6.2441999999999993
  8.0243147999999991 17.7793134479999999  6.2487000000000004
  8.7096909749999991 19.0116399590000000  6.5021999999999984
  7.9889053999999993 20.2490538769999979  6.4820999999999991
  8.6831339249999999 21.4923378800000009  6.6320999999999994
  7.9657530999999997 22.7281864419999984  6.4988999999999999
  8.6736006249999988 23.9714704450000013  6.5021999999999984
  7.9633697749999994 25.1920567859999984  6.2403000000000004
  8.6814315499999992 26.4181218729999969  6.1025999999999998
  7.9793721000000000 27.6164018909999953  5.7492000000000001
  8.6981148249999993 28.8260307400000002  5.5214999999999996
  7.9970768000000003 30.0164839780000001  5.1486000000000001
  8.7090100250000013 31.2182860469999959  4.8738000000000001
  8.0049077250000007 32.4130440140000005  4.5275999999999996
  8.7096909749999991 33.6203248289999976  4.2663000000000002
  7.9984386999999995 34.8413025090000019  4.0590000000000002
  8.7042433749999990 36.0701069690000011  3.9327000000000005
  7.9953744250000005 37.3079122259999991  3.9435000000000002
  8.7090100250000013 38.5374993639999985  4.0202999999999998
 10.1424097749999991  1.8291184859999998  4.4702999999999999
 10.8523001500000014  3.0262244869999990  4.7831999999999999
 10.1468359499999998  4.2354619969999998  5.0625000000000000
 10.8543429999999983  5.4368727269999999  5.3712000000000000
 10.1430907250000004  6.6664598649999984  5.5424999999999986
 10.8526406249999994  7.8807847819999983  5.7980999999999998
 10.1451335750000009  9.1240687849999986  5.8430999999999997
 10.8567263249999986 10.3454378039999995  6.0621000000000000
 10.1546668750000002 11.5918525189999979  6.0414000000000003
 10.8591096500000006 12.8159609109999995  6.2796000000000003
 10.1522835499999999 14.0596362529999954  6.2772000000000006
 10.8540025250000003 15.2896147299999985  6.5057999999999998
 10.1454740500000007 16.5332900719999998  6.4997999999999996
 10.8454906500000003 17.7710953289999978  6.6951000000000001
 10.1287907749999988 19.0124226369999967  6.7016999999999989
 10.8305097499999992 20.2557066399999961  6.8406000000000002
 10.1093837000000004 21.4970339479999950  6.7988999999999997
 10.8182526499999998 22.7434486629999917  6.8168999999999995
 10.1018932499999998 23.9785145469999996  6.6509999999999998
 10.8182526499999998 25.2131890919999968  6.5279999999999996
 10.1087027499999991 26.4271226699999993  6.2366999999999999
 10.8257431000000004 27.6422302649999949  5.9993999999999996
 10.1213003250000000 28.8365968929999994  5.6325000000000003
 10.8339144999999988 30.0356595889999944  5.3238000000000003
 10.1308336249999993 31.2221994370000004  4.9374000000000002
 10.8373192500000002 32.4142180309999972  4.5983999999999998
 10.1308336249999993 33.6148460829999962  4.2776999999999994
 10.8352764000000015 34.8299536779999954  4.0365000000000002
 10.1260669750000005 36.0626715279999956  3.9075000000000002
 10.8349359249999999 37.2985200899999967  3.8813999999999997
 10.1304931500000013 38.5331946350000010  3.9971999999999999
 10.8427668500000003  0.6183156200000001  4.1949000000000005
 12.2632285499999991  0.6175329419999998  4.1583000000000006
 12.9731189249999996  1.8299011640000000  4.4051999999999998
 12.2748047000000007  3.0254418089999993  4.7606999999999999
 12.9860569750000003  4.2295919119999992  5.0514000000000001
 12.2822951499999995  5.4302199639999982  5.3897999999999993
 12.9945688500000003  6.6468929149999996  5.6354999999999995
 12.2829761000000008  7.8682619339999977  5.8764000000000003
 12.9962712249999992  9.0974577329999988  6.0548999999999991
 12.2822951499999995 10.3321322779999960  6.1956000000000007
 12.9942283749999987 11.5668068229999967  6.3399000000000001
 12.2812737249999984 12.8053947580000003  6.4382999999999999
 12.9918450499999985 14.0420259979999980  6.5868000000000002
 12.2782094500000003 15.2837446449999970  6.6570000000000000
 12.9887807750000004 16.5250719529999941  6.7760999999999996
 12.2734427999999998 17.7687472950000007  6.8186999999999998
 12.9823117499999992 19.0128139759999968  6.9167999999999994
 12.2625475999999995 20.2564893179999927  6.9309000000000003
 12.9748212999999986 21.5029040330000001  6.9611999999999998
 12.2547166750000009 22.7450140189999992  6.8916000000000004
 12.9697141750000000 23.9863413269999981  6.7973999999999997
 12.2519928749999991 25.2167111429999977  6.5985000000000005
 12.9676713249999995 26.4392541789999953  6.3714000000000004
 12.2550571499999990 27.6484916889999965  6.0626999999999995
 12.9666499000000002 28.8467717069999914  5.7252000000000001
 12.2591428499999999 30.0380076229999915  5.3547000000000002
 12.9646070499999997 31.2206340809999929  4.9635000000000007
 12.2591428499999999 32.4110873189999964  4.5998999999999999
 12.9629046750000008 33.6070193030000013  4.2587999999999999
 12.2564190499999999 34.8248662709999977  4.0190999999999999
 12.9625641999999992 36.0544534089999971  3.8559000000000001
 12.2560785750000001 37.2949980389999993  3.8502000000000001
 12.9646070499999997 38.5300639229999931  3.9249000000000001
 14.3905163499999986  1.8408586559999995  4.2972000000000001
 15.0983638750000004  3.0594883019999992  4.5228000000000002
 14.4051567750000000  4.2479848449999995  4.9206000000000003
 15.1153876250000003  5.4689625250000002  5.1348000000000003
 14.4191162500000001  6.6641118309999996  5.5115999999999996
 15.1286661500000008  7.8983950369999985  5.6610000000000005
 14.4245638499999984  9.1103719200000004  5.9607000000000001
 15.1320709000000004 10.3520905669999994  6.0492000000000008
 14.4228614749999995 11.5750249419999989  6.2807999999999993
 15.1320709000000004 12.8167435889999979  6.3672000000000004
 14.4225209999999997 14.0463307270000008  6.5667000000000000
 15.1334327999999996 15.2884407130000000  6.6488999999999994
 14.4208186249999990 16.5262459699999980  6.7847999999999997
 15.1341137499999991 17.7687472950000007  6.8639999999999999
 14.4177543499999992 19.0108572809999998  6.9462000000000002
 15.1324113750000002 20.2557066399999961  6.9875999999999996
 14.4123067500000008 21.5013386769999926  6.9855000000000000
 15.1276447249999997 22.7438400019999989  6.9200999999999997
 14.4071996250000005 23.9836019539999974  6.8018999999999998
 15.1201542749999991 25.2096670409999994  6.5777999999999999
 14.4014115500000006 26.4326014160000007  6.3456000000000001
 15.1072162250000002 27.6293160779999987  5.9858999999999991
 14.3932401500000005 28.8350315369999990  5.6783999999999999
 15.0932567500000001 30.0141359439999924  5.2587000000000002
 14.3864306500000012 31.2104592669999974  4.9164000000000003
 15.0874686750000002 32.3942597419999885  4.5173999999999994
 14.3840473250000009 33.6019318959999964  4.2210000000000001
 15.0898519999999987 34.8174308299999993  3.9485999999999994
 14.3840473250000009 36.0524967139999930  3.8160000000000003
 15.0908734249999998 37.2934326829999989  3.7505999999999999
 14.3843878000000007 38.5316292789999935  3.8568000000000002
 15.0901924750000003  0.6320124849999998  3.9867000000000004
 16.5092922750000000  0.6398392650000000  3.8886000000000003
 17.2113517250000001  1.8749051489999999  4.0323000000000002
 16.5103137000000011  3.0829686420000000  4.3470000000000004
 17.2144159999999999  4.3117731020000001  4.5173999999999994
 16.5225708000000004  5.5045743739999997  4.9035000000000002
 17.2287159500000016  6.7388575799999995  5.0349000000000004
 16.5372112250000001  7.9340068859999997  5.4131999999999998
 17.2406325749999993  9.1768995499999981  5.4851999999999999
 16.5433397749999997 10.3833976870000004  5.8140000000000001
 17.2474420749999986 11.6262903509999997  5.8665000000000003
 16.5504897500000006 12.8374845559999997  6.1826999999999996
 17.2641253499999969 14.0741157959999974  6.2793000000000001
 16.5610444749999992 15.2970501709999969  6.5373000000000001
 17.2780848250000005 16.5336814109999963  6.6333000000000002
 16.5678539749999985 17.7687472950000007  6.8114999999999988
 17.2865966999999969 19.0077265689999990  6.8751000000000007
 16.5698968250000007 20.2517932499999986  6.9588000000000001
 17.2865966999999969 21.4942945749999943  6.9167999999999994
 16.5658111249999997 22.7371872390000007  6.8700000000000001
 17.2750205500000007 23.9656003599999998  6.6543000000000001
 16.5515111750000017 25.1936221419999988  6.4757999999999987
 17.2484634999999997 26.3883801089999963  6.0987000000000000
 16.5290398250000017 27.6015310089999986  5.8475999999999999
 17.2215659750000007 28.7798527379999918  5.4173999999999998
 16.5123565499999998 29.9898729260000003  5.1416999999999993
 17.2103303000000025 31.1760214349999920  4.7420999999999998
 16.5075898999999993 32.3856502839999933  4.4522999999999993
 17.2137350500000004 33.5929310989999905  4.1402999999999999
 16.5120160750000018 34.8182135079999924  3.9201000000000001
 17.2215659750000007 36.0536707309999969  3.7670999999999997
 16.5140589250000005 37.2953893779999888  3.7127999999999997
 17.2191826499999969 38.5402387369999886  3.7364999999999999
 18.6321538999999987  1.8846886239999996  3.9494999999999996
 19.3328514499999997  3.1209285249999992  4.0749000000000004
 18.6250039250000015  4.3379928149999989  4.3220999999999998
 19.3274038500000032  5.5730586989999988  4.4333999999999998
 18.6294301000000004  6.7776001409999989  4.7603999999999997
 19.3342133500000024  8.0150140589999985  4.8395999999999999
 18.6403252999999971  9.2164247889999995  5.1909000000000001
 19.3474918749999993 10.4546213849999994  5.2587000000000002
 18.6542847750000007 11.6572061319999989  5.6070000000000002
 19.3733679750000007 12.8844452359999959  5.7339000000000002
 18.6832251499999984 14.0893780169999996  6.0884999999999998
 19.4060535749999978 15.3123123919999973  6.2408999999999999
 18.7070584000000011 16.5344640890000001  6.5193000000000003
 19.4292058750000010 17.7644425659999996  6.6291000000000002
 18.7203369250000016 19.0022478229999976  6.7919999999999998
 19.4394201249999981 20.2412270969999923  6.7902000000000005
 18.7216988249999972 21.4860764559999922  6.8199000000000005
 19.4302272999999985 22.7180116279999993  6.6326999999999998
 18.7039941250000012 23.9491641219999920  6.5079000000000002
 19.3951583749999976 25.1478354789999941  6.1343999999999994
 18.6658609250000005 26.3578556669999919  5.9081999999999999
 19.3532799500000010 27.5385254299999929  5.4822000000000006
 18.6365800750000012 28.7516763299999987  5.2526999999999999
 19.3345538250000004 29.9472169749999928  4.8929999999999998
 18.6290896249999989 31.1642812649999925  4.6574999999999998
 19.3352347750000000 32.3762581479999980  4.3757999999999999
 18.6355586500000001 33.5972358279999881  4.1409000000000002
 19.3478323500000009 34.8287796609999987  3.9825000000000004
 18.6457729000000008 36.0611061719999881  3.8123999999999998
 19.3553227999999997 37.3039988359999981  3.7917000000000001
 18.6444109999999981 38.5437607880000002  3.7503000000000002
 19.3471513999999978  0.6515794350000000  3.8349000000000002
 20.7696559500000006  0.6543188079999998  3.9300000000000002
 21.4717153999999972  1.8925154039999996  4.0193999999999992
 20.7560369500000022  3.1271899489999990  4.0422000000000002
 21.4574154499999992  4.3642125279999995  4.1184000000000003
 20.7430988999999997  5.5918429709999993  4.2653999999999996
 21.4468607249999970  6.8280828719999995  4.3262999999999998
 20.7407155749999994  8.0435818059999988  4.5852000000000004
 21.4516273750000011  9.2766909949999992  4.6602000000000006
 20.7556964750000006 10.4808410979999991  4.9992000000000001
 21.4761415749999998 11.7041668120000004  5.1275999999999993
 20.7880415999999997 12.9000987959999964  5.5152000000000001
 21.5163176249999992 14.1120756789999984  5.7012000000000000
 20.8292390750000003 15.3134864089999994  6.0798000000000005
 21.5568341500000002 16.5301593599999990  6.2487000000000004
 20.8588603999999975 17.7573984639999978  6.5091000000000001
 21.5803269250000014 18.9905076529999981  6.5484000000000000
 20.8704365499999973 20.2322263000000007  6.6573000000000002
 21.5793055000000003 21.4676835229999980  6.5118000000000000
 20.8561365999999992 22.7039234239999992  6.4527000000000001
 21.5452580000000005 23.9100302219999925  6.1032000000000002
 20.8118748499999988 25.1227897829999947  5.9190000000000005
 21.4938462749999992 26.3054162409999961  5.4912000000000001
 20.7689749999999975 27.5173931239999980  5.2998000000000003
 21.4652463749999995 28.7164558199999931  4.9565999999999999
 20.7536536250000019 29.9378248389999975  4.7894999999999994
 21.4594582999999979 31.1560631459999975  4.5585000000000004
 20.7563774250000002 32.3817368939999994  4.3883999999999999
 21.4666082749999987 33.6144547439999926  4.2791999999999994
 20.7669321500000024 34.8420851869999879  4.1021999999999998
 21.4764820500000013 36.0818471389999900  4.1021999999999998
 20.7737416500000016 37.3129996329999969  3.9464999999999999
 21.4795463250000012 38.5531529239999955  4.0160999999999998
 22.8897937750000011  1.8956461159999998  4.1654999999999998
 23.5952579749999991  3.1326686949999996  4.1900999999999993
 22.8819628500000007  4.3661692230000000  4.1204999999999998
 23.5857246749999980  5.6031918019999996  4.1189999999999998
 22.8680033749999971  6.8359096519999998  4.1889000000000003
 23.5758509000000025  8.0709755359999988  4.2141000000000002
 22.8666414750000015  9.2915618769999995  4.4430000000000005
 23.5847032500000005 10.5172356249999996  4.5423000000000000
 22.8897937750000011 11.7190376939999990  4.8968999999999996
 23.6184102750000022 12.9278838649999983  5.0819999999999999
 22.9333745749999984 14.1171630859999997  5.4981000000000000
 23.6674386749999996 15.3170084600000003  5.7228000000000003
 22.9796791750000011 16.5242892750000010  6.0827999999999998
 23.7038694999999997 17.7483976669999990  6.1844999999999999
 23.0028314750000007 18.9826808729999996  6.3776999999999999
 23.7130623249999992 20.2177467570000005  6.2793000000000001
 22.9990862499999977 21.4567260309999952  6.2990999999999993
 23.6885481250000005 22.6722249649999945  5.9897999999999998
 22.9582292499999987 23.8908546109999982  5.8571999999999997
 23.6361149749999981 25.0758291029999967  5.4272999999999998
 22.9054556249999983 26.2854579520000016  5.2568999999999999
 23.5969603499999998 27.4825639529999961  4.8975000000000000
 22.8816223749999992 28.7066723449999941  4.7957999999999998
 23.5874270499999987 29.9268673469999946  4.5819000000000001
 22.8806009499999981 31.1584111799999945  4.5230999999999995
 23.5901508500000006 32.3919117079999950  4.4631000000000007
 22.8843461750000010 33.6242382189999987  4.3925999999999998
 23.5904913249999986 34.8616521370000001  4.4409000000000001
 22.8860485499999982 36.0931959699999965  4.3199999999999994
 23.5904913249999986 37.3306098879999979  4.4070000000000000
 22.8884318749999984 38.5609797039999904  4.2458999999999998
 23.5942365500000015  0.6648849610000001  4.3146000000000004
 25.0055054249999991  0.6731030800000000  4.5327000000000002
 25.7177791249999999  1.9097343199999997  4.5134999999999987
 25.0150387250000001  3.1369734239999998  4.3142999999999994