 C  N  H Fe 
 1.0000000000000000
    11.1753224103428668  -19.3143748426589816    0.0000000000000000
    11.1753224103428632   19.3143748426589816    0.0000000000000000
     0.0000000000000003    0.0000000000000000   16.0000000000000000
 C   N   H   Fe 
 190  12  12   1
Cartesian
 21.7508565990229421 -0.1032197769446257  1.8430568871312976
  0.6396220346199367  0.6166065383805778  1.8167862158780961
 11.8145778137999660 -17.2701869961794863  1.8121096364302496
  1.8802162236224444  2.7647258895460358  1.7674661154904927
 13.0552808511263088 -15.1247484726312056  1.7617196020127039
  3.1245561822002283  4.9111907862513711  1.7189330243072625
 14.2995980039497326 -12.9783497206870262  1.7189745110055119
  4.3654416310394826  7.0556477774967403  1.6973532805321840
 15.5412162160543250 -10.8304755187941204  1.7078998936030991
  5.6064976273849103  9.2024303637839324  1.7148973253381423
 16.7828167579461756 -8.6857539206973211  1.7259634240864448
  6.8513508106734138 11.3491466617025427  1.7511681872862257
 18.0272839142941308 -6.5410801201435369  1.7622906802714624
  8.0928335169082821 13.4937211298461719  1.8010711964842592
 19.2682056754868647 -4.3943498466231974  1.8126353492394849
  9.3327362963104203 15.6407703212797173  1.8433815018001951
 20.5084186788542020 -2.2492721425656090  1.8490090390730527
 10.5753159125962135 17.7862780016618878  1.8494624900400816
 11.8151384335839147 17.0659807078655490  1.8323244132869825
  1.8788005524146760 -1.5279555427195994  1.7881297834421728
  1.8793511101331544 -0.1033281129917118  1.7789080768526448
  3.1234931265076629  0.6187301312994815  1.7215383744187425
  3.1239165946880569  2.0430348689118820  1.7174292898107519
  4.3653255045621568  2.7632785434489486  1.6693217678268863
  4.3659147078952829  4.1909258935673162  1.6781101210472111
  5.6054966580417291  4.9110960696622987  1.6528048910985265
  5.6069695071987571  6.3357766851046824  1.6733379727031663
  6.8486775608738846  7.0577249199594485  1.6794733982630992
  6.8504052017530954  8.4820531875219682  1.7105400711176335
  8.0904414013214492  9.2021664760174264  1.7354666035391808
  8.0918625688602486 10.6297567371912294  1.7642638502246657
  9.3325287953626734 11.3495110458948965  1.7947632865693777
  9.3324720084137418 12.7734460261173819  1.8180511230330016
 10.5757812371343292 13.4950796623706726  1.8358326258579616
 10.5760004880266294 14.9188184764456810  1.8470903366998079
 11.8147913123963484 15.6388787876380100  1.8376343316407424
 13.0560736145163840 14.9188341223302601  1.8129631507183599
  3.1225096328650173 -3.6737466191834938  1.7669748281923601
  3.1245032844988661 -2.2499814023092974  1.7460274928321264
  4.3638348248042789 -1.5285589954112531  1.6853385424959697
  4.3660013958901374 -0.1016849984383770  1.6687995824887600
  5.6052847144833136  0.6187548102164452  1.6141931417139408
  5.6076837163964655  2.0434652558650153  1.6199459918613008
  6.8494558835121477  2.7646437891762710  1.5944936401700720
  6.8520065529839842  4.1885172808720572  1.6195513677440656
  8.0896739394523429  4.9093862686466387  1.6234105971324193
  8.0924432023303634  6.3358696088313344  1.6619100100093649
  9.3304426661013800  7.0576228345449463  1.6867370772391728
  9.3321081670608841  8.4811488865157330  1.7281145012285599
 10.5761250651216692  9.2045064692804637  1.7570675136050800
 10.5761809618777107 10.6281702641736029  1.7917545575820673
 11.8166948560409129 11.3481399532565472  1.8093661699359695
 11.8164475488919098 12.7747237213425144  1.8264135439724207
 13.0550772257441494 13.4945467930070500  1.8164653706473921
 14.2999813632602670 12.7729907438892187  1.7963203828462608
  4.3643212452765221 -5.8220697832836414  1.7620832288207569
  4.3651018614613228 -4.3938528475547267  1.7384252205738449
  5.6062090759491525 -3.6739992551829199  1.6845288175766191
  5.6062254492259047 -2.2488649318154383  1.6519346687015279
  6.8502954835839418 -1.5278117046653137  1.5946720573791713
  6.8518406896180641 -0.1024778617768995  1.5749006838408384
  8.0911437595294338  0.6166150794115866  1.5450347980989825
  8.0929229241605114  2.0455495601008411  1.5619805319779521
  9.3314310623071410  2.7641612579748140  1.5656776700311632
  9.3316417463810701  4.1885662307995322  1.6023906395090528
 10.5755292582229483  4.9102894033130733  1.6291699709810239
 10.5752932400811783  6.3347909796312747  1.6758698352992945
 11.8176293654570710  7.0565288122620480  1.7107349049535967
 11.8174546941533922  8.4834993442312818  1.7506700713174721
 13.0581932011757580  9.2038582539182432  1.7785379549578688
 13.0573057651669533 10.6281152828398682  1.8007575653543888
 14.3000581311379893 11.3482473284202143  1.8008313787725008
 15.5416037081832936 10.6292669110377265  1.7947344316968383
  5.6062030402117875 -7.9669465464188747  1.7769893783208768
  5.6053483534417419 -6.5413905027269657  1.7485649493977455
  6.8508210857002085 -5.8200020741508158  1.7071166554997039
  6.8490603608470924 -4.3941730778958519  1.6669701522615696
  8.0927815548915074 -3.6749091939624163  1.6198352031833567
  8.0911396686743196 -2.2461914648512376  1.5803444628169248
  9.3327071653534759 -1.5285840489533580  1.5490370619369280
  9.3317130851817822 -0.1014818340887849  1.5305226906044704
 10.5759726230997995  0.6174381620542994  1.5320573762659249
 10.5749571588462370  2.0442840680663301  1.5519465084985311
 11.8170844776500061  2.7625633152066009  1.5862074763343792
 11.8156481166309710  4.1909944136710431  1.6249492999008912
 13.0590858304278097  4.9100449843076444  1.6753578769302064
 13.0577179360898885  6.3364439393643099  1.7124660803614240
 14.3029141889862768  7.0571640499954569  1.7546414837670448
 14.3019067247613130  8.4827964087514687  1.7792551541944015
 15.5425032193825992  9.2010365420764533  1.7965158258064096
 16.7834217735203985  8.4826309791063927  1.8057502871803313
  6.8508314065804168 -10.1123455315797752  1.8041111512585537
  6.8499056459919707 -8.6874585585865258  1.7794376431255616
  8.0912158644402794 -7.9671039187845984  1.7498500180165599
  8.0905160557633931 -6.5404504107210535  1.7080673268819744
  9.3328667965228060 -5.8187466354539001  1.6713390472590384
  9.3320402871841566 -4.3940477839955951  1.6243943546551232
 10.5757772398011181 -3.6730030651139156  1.6003482203512929
 10.5751870372000543 -2.2475662838580868  1.5641201973737680
 11.8163430229529496 -1.5295407775308596  1.5643492641863761
 11.8160559598118695 -0.1005329880777796  1.5486256700635297
 13.0574072343509613  0.6181650941282085  1.5833322531750575
 13.0573193966208922  2.0442822536632086  1.6028310600225952
 14.3027399435930604  2.7649677672247228  1.6634198228480273
 14.3014379465618138  4.1903763227567952  1.6957016633349440
 15.5438785650082139  4.9095898925737540  1.7512805218949552
 15.5438896273714349  6.3384888434451643  1.7718238159815201
 16.7832538338479687  7.0565342022794981  1.8049326341686081
 18.0277929880376675  6.3362764294240304  1.8243762520435216
  8.0912569681836146 -12.2588997704792302  1.8275466790191792
  8.0917519781191540 -10.8317298352151123  1.8102255417223887
  9.3315678733466374 -10.1117422513222905  1.7877699100996545
  9.3316248781870321 -8.6879891012719135  1.7532381722261328
 10.5752438029999798 -7.9645177316421707  1.7228911928621071
 10.5766767502152650 -6.5411364519524637  1.6844706785398096
 11.8159122637611755 -5.8193197827683081  1.6628736753741584
 11.8174860220099713 -4.3932210147294253  1.6257167124831535
 13.0557901568891221 -3.6729489304117000  1.6264727140469408
 13.0575463476866780 -2.2477518246134300  1.6023326512681713
 14.3007344718927545 -1.5271292702261166  1.6327333164864513
 14.3022451545862470 -0.1022374997879629  1.6277943293489441
 15.5432153997486449  0.6180789911042317  1.6865806114699360
 15.5438877357487986  2.0449898769534971  1.7019916145742400
 16.7836228036362165  2.7658708472607181  1.7636898564096559
 16.7851284889414174  4.1907778862690224  1.7815758216211184
 18.0264295162436916  4.9114648535534355  1.8228550653931279
 19.2686551563789443  4.1913695772263910  1.8421875176280769
  9.3309789334776703 -14.4026419732704820  1.8411556108420657
  9.3318057668433312 -12.9788529267036523  1.8284593154471616
 10.5748656604220095 -12.2570452238948242  1.8053813529656959
 10.5752510269298785 -10.8332954592554458  1.7855436563977487
 11.8158352213408087 -10.1131259481374141  1.7535182270266880
 11.8177983522731189 -8.6855673889317639  1.7285399627726288
 13.0568667092186868 -7.9648989251158593  1.7090528865819583
 13.0588637667365450 -6.5415525587439287  1.6837649275711328
 14.3008351008016241 -5.8184523360524283  1.6815319460943103
 14.3027642310130911 -4.3951507910376737  1.6643756307734063
 15.5423553954641687 -3.6744393004964113  1.6911596099891999
 15.5440843438740348 -2.2472566148871223  1.6844171876857681
 16.7835977196849626 -1.5267301957850825  1.7350469426808095
 16.7850553918016949 -0.1027598890386989  1.7412961558584352
 18.0278094882475806  0.6198701917662020  1.7963492211961232
 18.0296579208129266  2.0434980396254390  1.8042688305990848
 19.2668596996909613  2.7645436310301568  1.8390858278493167
 20.5076898022857499  2.0436218448839560  1.8485923073212689
 10.5742544542176411 -16.5488338116142444  1.8381908200364017
 10.5750451793899423 -15.1250151300219979  1.8308803172528767
 11.8152571213081394 -14.4041505858529426  1.7969673163483999
 11.8151769977821051 -12.9773831523273433  1.7856298387989680
 13.0558867238550356 -12.2572389932900858  1.7480540226204080
 13.0560841029959924 -10.8323652202063183  1.7387266895210591
 14.3002607364248746 -10.1118048696633256  1.7188880473428303
 14.3012707380645399 -8.6859647400446001  1.7131542793046033
 15.5421341688295787 -7.9670785049967687  1.7127692063122593
 15.5428245884052796 -6.5393773612732478  1.7060038877940544
 16.7837444303338579 -5.8191984944094628  1.7311528469424495
 16.7839831001857291 -4.3954353952940775  1.7334139971845841
 18.0278193829551299 -3.6733054135599779  1.7775818132968193
 18.0286979439872646 -2.2490250821487714  1.7831106853378735
 19.2685039482223424 -1.5287040642906167  1.8262279929285792
 19.2690001764075269 -0.1010191322207625  1.8298299053431040
 20.5073267030078625  0.6190577871104195  1.8467172217298191
  3.8632418107936219 -2.6742319384017041  5.9265399167424002
  5.2505592442697067 -3.0139824185612616  5.9827680771932146
  6.1744487300801074 -2.0034485841055965  6.0533793301179921
  5.7346097243411771 -0.6010339736787783  6.0260385093237119
  3.4859664201287877 -1.3122723225678221  5.8964827388366530
  6.8558128232709956  0.2381776220781212  6.1331021117869122
  7.6234777585438298 -1.9899473754421184  6.1553849690842526
  7.8265736744062808  2.4092380404901612  6.0455664348551181
 10.0513641556105178  3.2183075860192716  6.0553228476571812
  7.7869677385532174  3.8717762187503704  5.9073795442859582
  9.1774363480386363  4.3236189020855500  5.9171012369124574
  8.4539534184039944  6.5798866928471043  5.6223005351020001
  7.1110310598990694  6.1953015273059231  5.6509848565996208
  6.7806405484531487  4.8188964771094422  5.7778234347273374
  9.7469632555803862 -3.0245717413758832  6.0418656522776928
 11.9716039179467586 -2.2075518424432281  6.0817133565764161
 11.3441093944999114 -6.3761332342561650  5.6464233614306067
 12.6804910203143990 -5.9955635380424255  5.6680495910997024
 13.0051001409685352 -4.6238042594059721  5.8011157823787025
 12.0129308130354922 -3.6690858861939994  5.9432505533238782
 10.6284080980207740 -4.1170470482838484  5.9255270150367778
 12.9497185429350417 -0.0315864727308053  6.1399772926550895
 12.1831347132640779  2.1897239298728093  6.1120162031483005
 14.0657743585644077  0.7994159294339801  6.0248629374062830
 16.3330036981600131  1.5080602392246418  5.8949277504970050
 15.9400959884733666  2.8772847397859724  5.9226771086772478
 14.5506156161403304  3.2147719814561815  5.9681952095010047
 13.6306901809939980  2.1997717769194614  6.0213719610574108
  4.3949151946041480 -0.3131137640700479  5.9371633823035372
  9.4123082429314948  5.6507911410228617  5.7611177472376767
 10.3571957251192615 -5.4624096256312882  5.7734106479713310
 15.4086791422863740  0.5077262532576772  5.9354131505931491
  7.9799072954933870 -0.6342119684380483  6.3356659294707924
  6.7986372849773185  1.5737836617052003  6.0539907823040275
  9.1995582750613991  2.0777855310568567  6.1673607417814083
  8.4111494306326566 -3.0747790754758304  6.0660557079571618
 10.6029466727300328 -1.8800099494853046  6.1466790151899886
 12.9927459349318983 -1.3767755138093285  6.1170038499188877
 11.8338771575216377  0.8378946501324444  6.2568481623283105
 11.3881837765898553  3.2662872978810213  6.0587623647469391
  3.0776221131011674 -3.4375977464754506  5.9233661443245182
  5.6370865975827318 -4.0533382727345462  6.0014204469409842
  2.4154333419528879 -0.9707986057612120  5.8634419083575731
  8.7899300983338176  7.6274709573976054  5.4472097998115041
  6.3116912488451682  6.9455035359050976  5.5111422532455663
  5.7218055486927692  4.5174565461453025  5.7314539245687683
 11.0154628341827596 -7.4216447085305068  5.4676638227497278
 13.4823776409071510 -6.7471226105333697  5.5292370062597902
 14.0624760167538660 -4.3142683152244352  5.7426763369290947
 17.3791372661479748  1.1823158528599256  5.8588360793804668
 16.7234920036288663  3.6409289601632882  5.9279636944479535
 14.1695137517319818  4.2469547820778573  5.9888970762619920
  9.9066075296894898  0.1074351316182673  6.1206506429574574
